#=======================================================
# FHI-aims file: C:\Users\amit_\OneDrive\PhD Python\DFTdevelopment\FinalBayesianTesting\Defectvalidation\self-consistent projectors\HybridSP\SCF v3 for Archer2\Anatase\Pt\geometry.in
# Created using the Atomic Simulation Environment (ASE)
# Mon Jul 29 11:18:15 2024
#=======================================================
lattice_vector 11.3550000000000004 0.0000000000000000 0.0000000000000000 
lattice_vector 0.0000000000000000 11.3550000000000004 0.0000000000000000 
lattice_vector 0.0000000000000000 0.0000000000000000 28.5398999999999958 
atom 1.8928998171803080 2.8387531732675022 8.3242441344329201 Ti
atom 0.0006874946295643 2.8386585629952075 5.9456729438412115 Ti
atom 1.8924542500659045 0.9462499446377148 1.1892321271529214 Ti
atom -0.0000639882870740 0.9462499634285144 3.5675115064792875 Ti
atom 1.8923798761935000 2.8386973100824320 0.7811829964866648 O
atom 0.0008375695026733 2.8386921157131479 7.9157720598977823 O
atom 1.8936482250201960 0.9462496999943768 8.7317175105823175 O
atom -0.0000484412247983 0.9462496866262662 1.5972117498351706 O
atom 0.0002172566485409 0.9462499835509801 5.5378322642005671 O
atom 1.8924726487780774 0.9462500433260479 3.1594360054091917 O
atom 0.0001035001502104 2.8386573814047966 3.9753589599883106 O
atom 1.8927611125182517 2.8388173340960621 6.3534308700662248 O
atom 1.8758258471624663 2.8381112894350475 17.8420541370145820 Ti
atom -0.0053128970108233 2.8334366138126619 15.4591193875085882 Ti
atom 1.8970528381706473 0.9462493943002045 10.7019869874640481 Ti
atom 0.0008082983281826 0.9462503519366543 13.0726067140161462 Ti
atom 1.8978181085832695 2.8393815975473822 10.2938949506097135 O
atom -0.0066099060890354 2.8403659620712753 17.4360622851521754 O
atom 1.8829437099501638 0.9462502760276473 18.2557391308585188 O
atom 0.0024065241265828 0.9462495493252132 11.1049636215495315 O
atom -0.0135075778719379 0.9462503350697068 15.0436325707797316 O
atom 1.8948602688559231 0.9462504403273370 12.6726893470931721 O
atom 0.0016109997340488 2.8321394090451339 13.4821566332643634 O
atom 1.8790751951564739 2.8146979317252243 15.8820471069897344 O
atom 1.8922302406082212 2.8386750788387038 27.3507969110672882 Ti
atom -0.0000913846082212 2.8394365214169586 24.9725626441155981 Ti
atom 1.8928699486587772 0.9462501325204018 20.2221956061896400 Ti
atom -0.0008163475244839 0.9462492797446941 22.5968676455085493 Ti
atom 1.8917472389816936 2.8388936241854861 19.8174418760517419 O
atom -0.0000925149295351 2.8388528967241311 26.9428581635185544 O
atom 1.8923997272782773 0.9462499227759951 27.7586767544770154 O
atom -0.0005790679200095 0.9462501130963824 20.6275509535124577 O
atom -0.0004604115425362 0.9462495014560823 24.5660525284667628 O
atom 1.8924193327790906 0.9462491491898489 22.1919468910156894 O
atom -0.0000574488488853 2.8395868893238214 23.0024450710563926 O
atom 1.8924330907100155 2.8389216746963757 25.3805620146745383 O
atom 1.8930805036797740 6.6237495755676408 8.3232955871261858 Ti
atom 0.0006268278179036 6.6237500566148722 5.9449277344138318 Ti
atom 1.8924757855822574 4.7312257144239602 1.1891678062255837 Ti
atom -0.0000745709933593 4.7309801409713161 3.5674200129476668 Ti
atom 1.8923757415530031 6.6237500144386940 0.7813003786383579 O
atom 0.0007405200752388 6.6237497276384181 7.9151139891588951 O
atom 1.8937564461331788 4.7317067664339465 8.7323123365193887 O
atom -0.0000524088438753 4.7311297990358048 1.5971521520737277 O
atom 0.0001727044804065 4.7311829240014136 5.5376730569425607 O
atom 1.8924823617477395 4.7311621253205356 3.1594460518576066 O
atom 0.0001584156732954 6.6237500267094491 3.9751037703391550 O
atom 1.8929249902466960 6.6237499442576411 6.3534021410373711 O
atom 1.8586810334206036 6.6237501752989552 17.8433681437782532 Ti
atom -0.0106085341377477 6.6237503134547957 15.4133681260237250 Ti
atom 1.8868164290920053 4.7320920394510999 10.7026600318225729 Ti
atom -0.0006398220767151 4.7145735694273245 13.0761636783223132 Ti
atom 1.8941877672927709 6.6237497119307269 10.2954217121286860 O
atom 0.0010860414103101 6.6237502186504047 17.4185837284242915 O
atom 1.8771227795792440 4.7251172823524339 18.2460323601570842 O
atom 0.0001424858094558 4.7304960659613444 11.1007928401939164 O
atom -0.0240519926176133 4.7178237645138354 15.0361871456706062 O
atom 1.8863661047878189 4.7158674947171724 12.6721841841574836 O
atom -0.0021251321323442 6.6237503730808367 13.4743697634029740 O
atom 1.8399519765720205 6.6237505409708586 15.8316930992791463 O
atom 1.8921758469565826 6.6237500504674589 27.3508916163508893 Ti
atom -0.0001154000154241 6.6237493149214615 24.9725810977675025 Ti
atom 1.8933425754444688 4.7255692086033640 20.2155739266587773 Ti
atom 0.0000037218519877 4.7316485196020626 22.5939724258441927 Ti
atom 1.8983807524818421 6.6237503642835973 19.7952405847912765 O
atom -0.0000858872171376 6.6237500682363608 26.9430363256306578 O
atom 1.8924121128439761 4.7312321077198654 27.7587718061059761 O
atom 0.0006319579659006 4.7365695688269875 20.6243395952777533 O
atom 0.0000675554891487 4.7315103817999642 24.5648039048025097 O
atom 1.8929573700514830 4.7325059214062009 22.1859039415946704 O
atom 0.0000444816580289 6.6237493616404199 23.0027286587633419 O
atom 1.8924547330520076 6.6237494849359919 25.3807251881931997 O
atom 1.8928998348608457 10.4087459602184129 8.3242441363721849 Ti
atom 0.0006874932488328 10.4088414341856819 5.9456730137223079 Ti
atom 1.8924758323682123 8.5162743813066744 1.1891677648178125 Ti
atom -0.0000746205047166 8.5165199512781289 3.5674199547956889 Ti
atom 1.8923799466245779 10.4088026307747157 0.7811826590852122 O
atom 0.0008375764722749 10.4088074243330677 7.9157721053041925 O
atom 1.8937563452694270 8.5157926232456411 8.7323123412746888 O
atom -0.0000524368052984 8.5163704905879420 1.5971521220811782 O
atom 0.0001727122521082 8.5163170861806723 5.5376730806083705 O
atom 1.8924823663061114 8.5163378351288657 3.1594459492824689 O
atom 0.0001036107085761 10.4088425928483517 3.9753590267173422 O
atom 1.8927611174066186 10.4086825742720013 6.3534308850365830 O
atom 1.8758259412412184 10.4093889459944915 17.8420538700549827 Ti
atom -0.0053129405422919 10.4140639831629382 15.4591194131979854 Ti
atom 1.8868165223285742 8.5154066986790902 10.7026600886071410 Ti
atom -0.0006398055559092 8.5329272533692269 13.0761636496326421 Ti
atom 1.8978182902744851 10.4081178271223678 10.2938949410195111 O
atom -0.0066098641067849 10.4071350775064460 17.4360622744605820 O
atom 1.8771225516311316 8.5223834364227997 18.2460322016634429 O
atom 0.0001425148008377 8.5170033938976104 11.1007928610373892 O
atom -0.0240520433418532 8.5296770223941785 15.0361871768203379 O
atom 1.8863661272762304 8.5316332546400222 12.6721841922778378 O
atom 0.0016109593695173 10.4153613038419461 13.4821565698827257 O
atom 1.8790752428822111 10.4328029452378512 15.8820469915154838 O
atom 1.8922301318600911 10.4088248994508632 27.3507968639208237 Ti
atom -0.0000914795817138 10.4080618760760224 24.9725620755524851 Ti
atom 1.8933426066144092 8.5219312986086155 20.2155738751141847 Ti
atom 0.0000036616751306 8.5158495518762116 22.5939723810210502 Ti
atom 1.8917478788473554 10.4086069649543269 19.8174417819537929 O
atom -0.0000924130127862 10.4086466908387614 26.9428581550131128 O
atom 1.8924121399562541 8.5162678927321469 27.7587716691444513 O
atom 0.0006319657813473 8.5109312367617278 20.6243392389872753 O
atom 0.0000676761626453 8.5159884131993540 24.5648036752361953 O
atom 1.8929573817896810 8.5149929686905228 22.1859037710160507 O
atom -0.0000578983515103 10.4079120921066703 23.0024451136049244 O
atom 1.8924330065193145 10.4085774322571041 25.3805617608631593 O
atom 5.6771003090756942 2.8387531614868258 8.3242441447812947 Ti
atom 3.7850000982382110 2.8386346527942887 5.9456547166302798 Ti
atom 5.6775459205708207 0.9462500220098033 1.1892319440705326 Ti
atom 3.7850001426035069 0.9462499963060634 3.5673251886661883 Ti
atom 5.6776201953350940 2.8386973589543087 0.7811827195248615 O
atom 3.7850000852865380 2.8387935894220595 7.9154891367563707 O
atom 5.6763519538418166 0.9462496983745943 8.7317175043171513 O
atom 3.7850001598743805 0.9462499250194669 1.5970874978003806 O
atom 3.7850000795653025 0.9462499546916939 5.5376795400811947 O
atom 5.6775274737600201 0.9462499159474730 3.1594360118532401 O
atom 3.7850001396979969 2.8386641323633603 3.9751814528882505 O
atom 5.6772390293211235 2.8388173380038393 6.3534309024712643 O
atom 5.6941737879022014 2.8381114286985452 17.8420539616214029 Ti
atom 3.7849997382186320 2.8281414127926832 15.5048607203075193 Ti
atom 5.6729476464709814 0.9462493935350924 10.7019869999180433 Ti
atom 3.7850002360712534 0.9462512153106749 13.0920753036854869 Ti
atom 5.6721822979645076 2.8393816037187958 10.2938949748755348 O
atom 3.7849998463442973 2.8366259693030456 17.4438439824962508 O
atom 5.6870558812441114 0.9462502731891282 18.2557390705375937 O
atom 3.7850001688603050 0.9462501381857724 11.1136830824583992 O
atom 3.7849998421160409 0.9462506826850614 15.0557758053824493 O
atom 5.6751400980064473 0.9462504261475059 12.6726893323185372 O
atom 3.7850002641590677 2.8398329770441770 13.4996248968526871 O
atom 5.6909244279560047 2.8146982172634178 15.8820470615693967 O
atom 5.6777700270309017 2.8386751560565746 27.3507968119692393 Ti
atom 3.7850000511288067 2.8393768581991106 24.9733076352703520 Ti
atom 5.6771301498465441 0.9462502275690363 20.2221953592370127 Ti
atom 3.7850001204007508 0.9462500181195529 22.5979084135683799 Ti
atom 5.6782524632076825 2.8388937260177802 19.8174416371759889 O
atom 3.7850000637574452 2.8389085765217867 26.9431135466157698 O
atom 5.6776005879902556 0.9462500324629219 27.7586768057203166 O
atom 3.7850000727471964 0.9462509163860906 20.6276648521491701 O
atom 3.7849999621750667 0.9462497326795338 24.5667600140388735 O
atom 5.6775809098283947 0.9462492589012693 22.1919470416636351 O
atom 3.7849999840029662 2.8394904167855053 23.0031028899472325 O
atom 5.6775671400841548 2.8389215648472881 25.3805616050760570 O
atom 5.6769196042836167 6.6237495795448700 8.3232956278413788 Ti
atom 3.7850001002668230 6.6237500034343766 5.9447297446850698 Ti
atom 5.6775242771823429 4.7312257140752836 1.1891675886326909 Ti
atom 3.7850000588105916 4.7309259145157094 3.5673256483484019 Ti
atom 5.6776243327425080 6.6237499625225338 0.7813000919833218 O
atom 3.7850000779230699 6.6237496840188017 7.9154396769917312 O
atom 5.6762437156241399 4.7317067610924699 8.7323123591814618 O
atom 3.7850001063316081 4.7311263916261588 1.5970348325979022 O
atom 3.7850000851708425 4.7312046134539161 5.5375104612313333 O
atom 5.6775177556379717 4.7311621320106925 3.1594458878442504 O
atom 3.7850001370040043 6.6237499689657460 3.9751131407469988 O
atom 5.6770751439035330 6.6237499350903866 6.3534021766384221 O
atom 5.7113177217790119 6.6237500950768053 17.8433672552309943 Ti
atom 3.7849983676279924 6.6237506121419347 15.4591037710521615 Pt
atom 5.6831838847755751 4.7320920310728729 10.7026600431058316 Ti
atom 3.7850001836672726 4.6974245317915484 13.0748387475713841 Ti
atom 5.6758125203018777 6.6237497061242587 10.2954217239555490 O
atom 3.7849990064110259 6.6237504292482514 17.4469851152920796 O
atom 5.6928765942911941 4.7251174040210548 18.2460319728575158 O
atom 3.7850001202433119 4.7371341508151126 11.1229867608092636 O
atom 3.7849989433009217 4.6787000059431501 15.0865228393852995 O
atom 5.6836340597627970 4.7158676859694850 12.6721842450411941 O
atom 3.7849994431993008 6.6237505025474706 13.4712054380738895 O
atom 5.7300454055695038 6.6237505157813592 15.8316924118074382 O
atom 5.6778244198724366 6.6237499724413453 27.3508915115629989 Ti
atom 3.7850000473038379 6.6237498607023149 24.9735060499208643 Ti
atom 5.6766574370158365 4.7255694090430831 20.2155735900132356 Ti
atom 3.7850000332164471 4.7318305384778876 22.5949207085235599 Ti
atom 5.6716186312801105 6.6237503239912856 19.7952401501541146 O
atom 3.7850000628586291 6.6237501269710730 26.9431050002532793 O
atom 5.6775881242930772 4.7312321063928477 27.7587715635256060 O
atom 3.7849999744908538 4.7329449376764217 20.6228121371109765 O
atom 3.7850000848865042 4.7316744440296263 24.5648325179962121 O
atom 5.6770427298907515 4.7325059720271128 22.1859037783071749 O
atom 3.7849999738636835 6.6237496438788099 23.0027788883340563 O
atom 5.6775454926654412 6.6237496068728960 25.3807247716567517 O
atom 5.6771002732833802 10.4087459662862472 8.3242441664724236 Ti
atom 3.7850000847299512 10.4088652979474166 5.9456546964302728 Ti
atom 5.6775243246436693 8.5162743074149585 1.1891675840021769 Ti
atom 3.7850001441890129 8.5165740780422858 3.5673256072187445 Ti
atom 5.6776202507280935 10.4088026335302093 0.7811829394054211 O
atom 3.7850000850326531 10.4087055453853434 7.9154891210164360 O
atom 5.6762438108062474 8.5157926272578948 8.7323123735648611 O
atom 3.7850001516062552 8.5163736903896723 1.5970348061363864 O
atom 3.7850000962571424 8.5162952781090713 5.5375104259153192 O
atom 5.6775177483335701 8.5163379559239818 3.1594459437432048 O
atom 3.7849999679350814 10.4088357933333224 3.9751814535457601 O
atom 5.6772390159906285 10.4086825795113054 6.3534308878222436 O
atom 5.6941737485251931 10.4093889046801760 17.8420538213214179 Ti
atom 3.7849997901294410 10.4193600562519961 15.5048603438268771 Ti
atom 5.6831837934446163 8.5154066994709225 10.7026601022847636 Ti
atom 3.7850001798050479 8.5500775633135895 13.0748388815892973 Ti
atom 5.6721821196038933 10.4081178233810689 10.2938949537280493 O
atom 3.7849998681256301 10.4108745753463250 17.4438437718116575 O
atom 5.6928766973758060 8.5223833150766559 18.2460319886329785 O
atom 3.7850001213754685 8.5103653520064082 11.1229867422498945 O
atom 3.7849989662070382 8.5688012805299625 15.0865225549942608 O
atom 5.6836340349565653 8.5316330744422899 12.6721842665165720 O
atom 3.7850002548388804 10.4076684508434028 13.4996246023592441 O
atom 5.6909244109852484 10.4328026814325980 15.8820469826071768 O
atom 5.6777698779802028 10.4088249018838965 27.3507966941527449 Ti
atom 3.7850001844454622 10.4081228493453395 24.9733074332183058 Ti
atom 5.6766574896296786 8.5219310075801928 20.2155735802647527 Ti
atom 3.7850001049385003 8.5156691930433031 22.5949206921740426 Ti
atom 5.6782523882000708 10.4086069054509363 19.8174416419390873 O
atom 3.7849998457373211 10.4085915752647171 26.9431135280261529 O
atom 5.6775881788445481 8.5162677842538699 27.7587717024404945 O
atom 3.7850000354994049 8.5145557307160420 20.6228121564553355 O
atom 3.7849999521785049 8.5158248980832401 24.5648324664238800 O
atom 5.6770428343047925 8.5149928044245691 22.1859038922898222 O
atom 3.7850003900978653 10.4080089565569800 23.0031028613981476 O
atom 5.6775670738524164 10.4085774200018175 25.3805617067451124 O
atom 9.4625000742636640 2.8379334251912138 8.3213492668288023 Ti
atom 7.5693126469789993 2.8386586300886503 5.9456729821519305 Ti
atom 9.4625000134444459 0.9462499822534781 1.1891678078358394 Ti
atom 7.5700640443544662 0.9462500200587426 3.5675115631176437 Ti
atom 9.4625001211482900 2.8387011841506746 0.7811231808409816 O
atom 7.5691625993840530 2.8386921113703623 7.9157721026202550 O
atom 9.4625000942357698 0.9462498780543894 8.7273672408212910 O
atom 7.5700484765472167 0.9462502510442162 1.5972117989434020 O
atom 7.5697828942017793 0.9462500200030544 5.5378323413787980 O
atom 9.4625000753396140 0.9462499425858031 3.1595488548300033 O
atom 7.5698965652352674 2.8386574100480950 3.9753590510791468 O
atom 9.4625001055437554 2.8382902916690056 6.3521828642538471 O
atom 9.4624999278630657 2.8395597756187270 17.8456110568212942 Ti
atom 7.5753125668313839 2.8334366172308760 15.4591194592774510 Ti
atom 9.4625002070097413 0.9462499195174308 10.6991818016653184 Ti
atom 7.5691921958992987 0.9462503288817801 13.0726067728524544 Ti
atom 9.4625001452258815 2.8381706016104862 10.2906840099446288 O
atom 7.5766095665207391 2.8403657536105209 17.4360623561768620 O
atom 9.4624999419239284 0.9462504812105138 18.2543812914224581 O
atom 7.5675938247463321 0.9462495531882514 11.1049636372673888 O
atom 7.5835072364220411 0.9462503212023494 15.0436326481773204 O
atom 9.4625001638896098 0.9462505981753201 12.6638356794916458 O
atom 7.5683894593103380 2.8321394463835423 13.4821567333544508 O
atom 9.4624998541957961 2.8252376632631049 15.8746028673281359 O
atom 9.4624999222478774 2.8386857327189787 27.3507051721736651 Ti
atom 7.5700915402092495 2.8394366625099323 24.9725621511422240 Ti
atom 9.4625000161702957 0.9462510509919717 20.2190532179891775 Ti
atom 7.5708163976058636 0.9462490218511433 22.5968674013510196 Ti
atom 9.4625004446870840 2.8411573450512129 19.8132704525700696 O
atom 7.5700926485951143 2.8388532715973400 26.9428582299980519 O
atom 9.4624998833784080 0.9462498970967362 27.7586680295383630 O
atom 7.5705791078151732 0.9462502210721115 20.6275510722469697 O
atom 7.5704606459122346 0.9462493627457705 24.5660524712548778 O
atom 9.4624998834137823 0.9462499191898891 22.1908494681000796 O
atom 7.5700576178166088 2.8395866800177645 23.0024449254469516 O
atom 9.4624999651931585 2.8389668125463388 25.3804025406977871 O
atom 9.4625000694871222 6.6237499694231872 8.3203085417511993 Ti
atom 7.5693732862530041 6.6237500002435441 5.9449277925710913 Ti
atom 9.4625001173588661 4.7312038613299912 1.1891036171366827 Ti
atom 7.5700747153771601 4.7309801409820391 3.5674198967711601 Ti
atom 9.4625001150355654 6.6237499099389687 0.7812478052739261 O
atom 7.5692596258861595 6.6237497263287652 7.9151140383059673 O
atom 9.4625000364566301 4.7311689523056106 8.7262701299092313 O
atom 7.5700524967678335 4.7311297858204160 1.5971521185343402 O
atom 7.5698274345092109 4.7311829316081093 5.5376731088328315 O
atom 9.4625000796283860 4.7311494931789007 3.1595403659238337 O
atom 7.5698416446379939 6.6237500050697742 3.9751038619303256 O
atom 9.4625000894240490 6.6237500953861295 6.3514749854055754 O
atom 9.4624998598129739 6.6237508044400020 17.8261327922592265 Ti
atom 7.5806064504304373 6.6237503263909971 15.4133684595855769 Ti
atom 9.4625001566290941 4.7316197610880621 10.6960388709131973 Ti
atom 7.5706402809020306 4.7145737008676116 13.0761637146621847 Ti
atom 9.4625001740413168 6.6237498494929898 10.2905697357704806 O
atom 7.5689125431660953 6.6237504036350465 17.4185834607177519 O
atom 9.4624996466210707 4.7336124299020588 18.2455269155767468 O
atom 7.5698577537776268 4.7304961138605410 11.1007928985256630 O
atom 7.5940513050333376 4.7178239020232757 15.0361873056352735 O
atom 9.4625001107019600 4.7216947861616712 12.6624777121901690 O
atom 7.5721252316800980 6.6237503760982612 13.4743698539115382 O
atom 9.4624993610893675 6.6237504916703172 15.8624546547781122 O
atom 9.4624999162960570 6.6237499373456323 27.3508924641582496 Ti
atom 7.5701155507196596 6.6237491756565596 24.9725805955789468 Ti
atom 9.4625000978022378 4.7358063830087804 20.2162473232838735 Ti
atom 7.5699963878794412 4.7316485118458509 22.5939724705475342 Ti
atom 9.4625003591622736 6.6237504481179021 19.8045496880707326 O
atom 7.5700860167901896 6.6237496752544924 26.9430363865215874 O
atom 9.4624999592132184 4.7312222787374569 27.7587817472188156 O
atom 7.5693680902425173 4.7365696012263863 20.6243391469843296 O
atom 7.5699325440507108 4.7315103801209757 24.5648034875218784 O
atom 9.4624999770985845 4.7323963965721596 22.1864992187553369 O
atom 7.5699556813105220 6.6237495716790349 23.0027285120577787 O
atom 9.4624999644793810 6.6237493485016365 25.3805558170626639 O
atom 9.4625001004374472 10.4095664735471036 8.3213493672090699 Ti
atom 7.5693126499609553 10.4088414254012349 5.9456730559878661 Ti
atom 9.4625000193120350 8.5162960894026600 1.1891036311754539 Ti
atom 7.5700746636704226 8.5165198970276990 3.5674199704155520 Ti
atom 9.4624999925480289 10.4087986777003394 0.7811232009446903 O
atom 7.5691625928498825 10.4088074294260693 7.9157721311685512 O
atom 9.4625000430557957 8.5163307339806664 8.7262701261047066 O
atom 7.5700524757394341 8.5163699393364851 1.5971521724954454 O
atom 7.5698274128602892 8.5163170434361710 5.5376731626859881 O
atom 9.4625000779913488 8.5163505652210496 3.1595403944038858 O
atom 7.5698966230258691 10.4088425870552594 3.9753590738410067 O
atom 9.4625001132350857 10.4092098515572200 6.3521828745651172 O
atom 9.4624998794964927 10.4079419585840185 17.8456111106984316 Ti
atom 7.5753125642580610 10.4140639642554138 15.4591194919836568 Ti
atom 9.4625001555793240 8.5158799820032147 10.6960389150384252 Ti
atom 7.5706402689724310 8.5329271449686832 13.0761636900037832 Ti
atom 9.4625001429154096 10.4093290912955894 10.2906839822925988 O
atom 7.5766095142559626 10.4071350927764676 17.4360622954089912 O
atom 9.4624997678427505 8.5138885291010897 18.2455268183375061 O
atom 7.5698577245470204 8.5170033396251767 11.1007929124993705 O
atom 7.5940513334880304 8.5296768924698867 15.0361873135093216 O
atom 9.4625001139259073 8.5258061361763318 12.6624776957422895 O
atom 7.5683895112585970 10.4153612587586917 13.4821566522723106 O
atom 9.4624998191811738 10.4222632132501580 15.8746029066912566 O
atom 9.4625001710345540 10.4088141634522522 27.3507052173903027 Ti
atom 7.5700915000777673 10.4080618843921968 24.9725628092237351 Ti
atom 9.4625000089248399 8.5116956435976867 20.2162471838287416 Ti
atom 7.5699963630231935 8.5158498023864624 22.5939718951339223 Ti
atom 9.4624998940409366 10.4063435520034897 19.8132704621455140 O
atom 7.5700927622784029 10.4086467110025751 26.9428582522583184 O
atom 9.4624998765668344 8.5162774984493819 27.7587818282875318 O
atom 7.5693680233374696 8.5109310912418614 20.6243393482880215 O
atom 7.5699325546049190 8.5159885528786372 24.5648036049757863 O
atom 9.4624998606588129 8.5151025123376005 22.1864991179061555 O
atom 7.5700576595628588 10.4079120898894537 23.0024449920371055 O
atom 9.4625001140651133 10.4085316496396665 25.3804025886954570 O
