#=======================================================
# FHI-aims file: ./geometry.in
# Created using the Atomic Simulation Environment (ASE)
# Wed Jul 17 16:00:15 2024
#=======================================================
lattice_vector 13.7870999999999988 0.0000000000000000 0.0000000000000000 
lattice_vector 0.0000000000000000 13.7870999999999988 0.0000000000000000 
lattice_vector 0.0000000000000000 0.0000000000000000 8.8766999999999996 
atom_frac 0.1670702028730487 0.1670691880656685 0.1647597877667106 Ti
atom_frac 0.0000016198250042 0.0000016339109230 0.0000000259371790 Ti
atom_frac 0.0653461493216816 0.2686610589740631 0.1667081873728772 O
atom_frac 0.2686592234065480 0.0653438294521315 0.1667081863710771 O
atom_frac 0.1021510462109049 0.1021529656857414 0.0000000288512343 O
atom_frac 0.2312837703990004 0.2312811406909149 0.0000000054141999 O
atom_frac 0.1638807834544161 0.1638853789185170 0.5000000406999685 Ti
atom_frac -0.0000002369994041 -0.0000001689510016 0.3304712243346283 Ti
atom_frac 0.0652720090216355 0.2680121986851624 0.5000000135857195 O
atom_frac 0.2680105989011644 0.0652693283542479 0.5000000122474769 O
atom_frac 0.1017973266231231 0.1017992611390417 0.3332914878843924 O
atom_frac 0.2310310336924746 0.2310285997090674 0.3332881399367525 O
atom_frac 0.1670697941371558 0.1670697115838106 0.8352403150076984 Ti
atom_frac -0.0000002127105268 -0.0000001041475092 0.6695289834037456 Ti
atom_frac 0.0653461767451549 0.2686610452362068 0.8332917881709944 O
atom_frac 0.2686592401776963 0.0653438241419004 0.8332918894160167 O
atom_frac 0.1017973316187316 0.1017992701873478 0.6667085243482966 O
atom_frac 0.2310310440815663 0.2310286235034563 0.6667118871281391 O
atom_frac 0.1701295661122977 0.4997884275823238 0.1692105713066571 Ti
atom_frac 0.0013596050053169 0.3404012760090028 0.0000001353253668 Ti
atom_frac 0.0644591125657505 0.6025063591530950 0.1670546641938865 O
atom_frac 0.2684339431637471 0.3981002354482689 0.1659387638332978 O
atom_frac 0.1012752903055796 0.4359801619125723 -0.0000000299180202 O
atom_frac 0.2314809114189733 0.5648521599058619 -0.0000000258420902 O
atom_frac 0.1591760739546981 0.5015058700891979 0.4999999695217329 Ti
atom_frac -0.0004135850750555 0.3293728894241525 0.3307810858503252 Ti
atom_frac 0.0638617298427850 0.6018302088063977 0.5000000080061222 O
atom_frac 0.2690870618229608 0.3975728631257384 0.4999999677815971 O
atom_frac 0.1022888891606428 0.4352107437356304 0.3331587009192923 O
atom_frac 0.2302836504221852 0.5654335321881163 0.3327940750139760 O
atom_frac 0.1701293538954982 0.4997883766103323 0.8307895879280355 Ti
atom_frac -0.0004139597140640 0.3293732272036433 0.6692189036805990 Ti
atom_frac 0.0644591233790067 0.6025063631679412 0.8329453424191201 O
atom_frac 0.2684339282412707 0.3981002301036437 0.8340611879763311 O
atom_frac 0.1022888761390686 0.4352107555341195 0.6668413091200479 O
atom_frac 0.2302836566604688 0.5654335372983448 0.6672059337141284 O
atom_frac 0.1677183250326165 0.8322824047859161 0.1622608322426864 Ti
atom_frac -0.0013587695719100 0.6595991021267842 0.0000000524848691 Ti
atom_frac 0.0643150557089511 0.9356867067779699 0.1668060754547217 O
atom_frac 0.2673472173358389 0.7326501231626878 0.1652998309563289 O
atom_frac 0.1014760378177138 0.7696206080792444 -0.0000000074723314 O
atom_frac 0.2303809788582955 0.8985212733609963 0.0000000544771726 O
atom_frac 0.1639915900073465 0.8360079573841895 0.5000000709735468 Ti
atom_frac 0.0004148702834830 0.6706283089195996 0.3307810920980223 Ti
atom_frac 0.0644554177473734 0.9355462474772206 0.5000000145765324 O
atom_frac 0.2661258868787472 0.7338713499989156 0.4999999867170350 O
atom_frac 0.1007806544154798 0.7692379625889779 0.3336649681172319 O
atom_frac 0.2307638588424701 0.8992168317279093 0.3336645710246579 O
atom_frac 0.1677187224854077 0.8322826771438435 0.8377392114886821 Ti
atom_frac 0.0004150412035059 0.6706285086637654 0.6692189459066155 Ti
atom_frac 0.0643150635406497 0.9356867218256102 0.8331939862997956 O
atom_frac 0.2673472473914692 0.7326501496883063 0.8347001371693774 O
atom_frac 0.1007806618546391 0.7692379847447602 0.6663350381520178 O
atom_frac 0.2307638411427530 0.8992168665376427 0.6663354760633091 O
atom_frac 0.4997917507213899 0.1701260984166339 0.1692141581911228 Ti
atom_frac 0.3404031181827216 0.0013621133281538 -0.0000000212924761 Ti
atom_frac 0.3981026047035349 0.2684359472206818 0.1659383764336722 O
atom_frac 0.6025037798536458 0.0644574337678307 0.1670543909097672 O
atom_frac 0.4359781724041000 0.1012772455251149 0.0000000248770069 O
atom_frac 0.5648548786484081 0.2314792771901203 -0.0000000007967237 O
atom_frac 0.5015063410545709 0.1591784558183570 0.5000000759792743 Ti
atom_frac 0.3293711527600285 -0.0004139244386426 0.3307844243980461 Ti
atom_frac 0.3975751534158038 0.2690893684037810 0.4999999793787317 O
atom_frac 0.6018282578434865 0.0638598338350609 0.4999999962757030 O
atom_frac 0.4352090708169292 0.1022914727144226 0.3331584029040162 O
atom_frac 0.5654358340583459 0.2302818684848600 0.3327941864171930 O
atom_frac 0.4997919397018297 0.1701265266928508 0.8307859169251037 Ti
atom_frac 0.3293710317202899 -0.0004132877126332 0.6692157523555583 Ti
atom_frac 0.3981026183539834 0.2684359867324527 0.8340615849648910 O
atom_frac 0.6025037965642942 0.0644574386452398 0.8329456362682647 O
atom_frac 0.4352090595647173 0.1022914649066158 0.6668416013712627 O
atom_frac 0.5654358185642704 0.2302818836367042 0.6672057988656425 O
atom_frac 0.5000004920934407 0.5000006463158967 0.1665077572035961 Ti
atom_frac 0.3348319312950744 0.3348266269809519 0.0000000044880018 Ti
atom_frac 0.3972967061781057 0.6027048098272854 0.1664441378753045 O
atom_frac 0.6027030954684904 0.3972950288253431 0.1664441296583613 O
atom_frac 0.4350817945675760 0.4350835904117856 -0.0000001101476357 O
atom_frac 0.5649177969941001 0.5649159999659140 -0.0000001008548963 O
atom_frac 0.4999991270331587 0.4999989973497800 0.4999996751143602 Au
atom_frac 0.3299630188152625 0.3299631296579295 0.3377696766976904 Ti
atom_frac 0.3918540194019354 0.6081468653225099 0.4999999341982945 O
atom_frac 0.6081452366275584 0.3918523124486335 0.4999999379194373 O
atom_frac 0.4339289460022828 0.4339310457803390 0.3264789404763715 O
atom_frac 0.5660700499669135 0.5660679875556969 0.3264800629380266 O
atom_frac 0.5000005628311949 0.5000006060319048 0.8334918185550814 Ti
atom_frac 0.3299629094519151 0.3299633221095077 0.6622302613765735 Ti
atom_frac 0.3972967068059777 0.6027048015321855 0.8335557734276340 O
atom_frac 0.6027030724145482 0.3972950643004581 0.8335557839446486 O
atom_frac 0.4339289818510851 0.4339311206014815 0.6735205850060672 O
atom_frac 0.5660699786383711 0.5660679375996766 0.6735194585469847 O
atom_frac 0.5002088581907351 0.8298744528644253 0.1692144048791511 Ti
atom_frac 0.3352851412311395 0.6647194509479385 0.0000000674141222 Ti
atom_frac 0.3974960615830886 0.9355422660471924 0.1670544338890408 O
atom_frac 0.6018969540375224 0.7315634777295360 0.1659385001008754 O
atom_frac 0.4351447719782285 0.7685204658243593 -0.0000000106240570 O
atom_frac 0.5640216879758458 0.8987222940899411 0.0000000238448530 O
atom_frac 0.4984944061733128 0.8408215845552122 0.5000000805258780 Ti
atom_frac 0.3307176440968174 0.6692803484445906 0.3340421625665441 Ti
atom_frac 0.3981715334571726 0.9361397853031159 0.4999999612064163 O
atom_frac 0.6024244278068770 0.7309102806302726 0.4999999586199217 O
atom_frac 0.4345638021129651 0.7697177029221882 0.3327940405552854 O
atom_frac 0.5647905894154235 0.8977080504050517 0.3331582459756574 O
atom_frac 0.5002084890278666 0.8298745317623184 0.8307855950227385 Ti
atom_frac 0.3307175367155886 0.6692800303576653 0.6659579402267038 Ti
atom_frac 0.3974960644934344 0.9355422553992261 0.8329456165920566 O
atom_frac 0.6018969391484652 0.7315634687623939 0.8340614136383444 O
atom_frac 0.4345638209920821 0.7697176933362579 0.6672059039208581 O
atom_frac 0.5647905656715129 0.8977080558137135 0.6668417401673914 O
atom_frac 0.8322816553942870 0.1677176081109373 0.1622608397047004 Ti
atom_frac 0.6595972646299628 -0.0013614177822772 0.0000000016748968 Ti
atom_frac 0.7326524115081156 0.2673495186693672 0.1652998038442764 O
atom_frac 0.9356845869298885 0.0643129384661992 0.1668060925111456 O
atom_frac 0.7696186310959159 0.1014784194785308 0.0000000209276249 O
atom_frac 0.8985236026082276 0.2303790054985851 0.0000000141830670 O
atom_frac 0.8360100979326941 0.1639939495593488 0.5000000307443490 Ti
atom_frac 0.6706304037672673 0.0004147711277985 0.3307843334844178 Ti
atom_frac 0.7338740406279272 0.2661286407064339 0.4999999956197455 O
atom_frac 0.9355443022790664 0.0644535128439709 0.5000000173236963 O
atom_frac 0.7692359627196691 0.1007829215446113 0.3336647187759513 O
atom_frac 0.8992191039738453 0.2307618093484081 0.3336648777723522 O
atom_frac 0.8322815094101037 0.1677176809033067 0.8377392226184016 Ti
atom_frac 0.6706303450330783 0.0004147854823594 0.6692158233385362 Ti
atom_frac 0.7326523951927564 0.2673495092039014 0.8347001535175437 O
atom_frac 0.9356845987737089 0.0643129315321862 0.8331939777734759 O
atom_frac 0.7692359683026362 0.1007829103381023 0.6663353273231667 O
atom_frac 0.8992191007168729 0.2307618264366777 0.6663351573479124 O
atom_frac 0.8298713406246074 0.5002118981402188 0.1692107929533065 Ti
atom_frac 0.6647162321484473 0.3352819765982739 0.0000001307866865 Ti
atom_frac 0.7315655106359684 0.6018992896023472 0.1659389044524693 O
atom_frac 0.9355406085809752 0.3974934528346172 0.1670547273644074 O
atom_frac 0.7685188107976317 0.4351474197215647 -0.0000000041184723 O
atom_frac 0.8987242899048832 0.5640196828063706 -0.0000000322757133 O
atom_frac 0.8408239764938931 0.4984947604309276 0.4999999678985065 Ti
atom_frac 0.6692831078153315 0.3307205186828615 0.3340420493104846 Ti
atom_frac 0.7309125629430814 0.6024266847580817 0.5000000096117315 O
atom_frac 0.9361379355915000 0.3981695493180238 0.5000000444512385 O
atom_frac 0.7697159472325572 0.4345661512196712 0.3327939883606993 O
atom_frac 0.8977106722596760 0.5647888476292571 0.3331585702759880 O
atom_frac 0.8298714036795529 0.5002123696128574 0.8307892612269083 Ti
atom_frac 0.6692833604711782 0.3307209160480328 0.6659580159604015 Ti
atom_frac 0.7315655096160201 0.6018993084205593 0.8340610265562702 O
atom_frac 0.9355406100111898 0.3974934577289470 0.8329452888138142 O
atom_frac 0.7697159260800482 0.4345661487544862 0.6672060263409451 O
atom_frac 0.8977106600447367 0.5647888470861679 0.6668414560914081 O
atom_frac 0.8329314218909327 0.8329319129478191 0.1647591318939701 Ti
atom_frac 0.6651701383628609 0.6651753946255168 -0.0000000241064628 Ti
atom_frac 0.7313406600127893 0.9346559556482559 0.1667081829958173 O
atom_frac 0.9346536355305635 0.7313388186154925 0.1667082210907542 O
atom_frac 0.7687157671724378 0.7687183704761450 0.0000000216997125 O
atom_frac 0.8978485131992741 0.8978465661175478 0.0000000257299889 O
atom_frac 0.8361176265695943 0.8361130885464602 0.5000000671048974 Ti
atom_frac 0.6700373224439363 0.6700367388732705 0.3377695326033307 Ti
atom_frac 0.7319890350148361 0.9347302087631502 0.5000000033363770 O
atom_frac 0.9347275537536903 0.7319874133957129 0.5000000113392916 O
atom_frac 0.7689684313981280 0.7689708054244653 0.3332882204623233 O
atom_frac 0.8982021887274997 0.8982002452388553 0.3332916771745558 O
atom_frac 0.8329314597774125 0.8329318980322438 0.8352409395878979 Ti
atom_frac 0.6700370012299836 0.6700370325567103 0.6622304049980539 Ti
atom_frac 0.7313406502894685 0.9346559617270001 0.8332918546602627 O
atom_frac 0.9346536343332283 0.7313388330801972 0.8332918017809379 O
atom_frac 0.7689684046231439 0.7689708348823493 0.6667118229886246 O
atom_frac 0.8982021813101850 0.8982002417744388 0.6667083673038078 O
