#=======================================================
# FHI-aims file: C:\Users\amit_\OneDrive\PhD Python\DFTdevelopment\FinalBayesianTesting\Defectvalidation\self-consistent projectors\HybridSP\SCF v3 for Archer2\Anatase\Pd\geometry.in
# Created using the Atomic Simulation Environment (ASE)
# Mon Jul 29 11:17:59 2024
#=======================================================
lattice_vector 11.3550000000000004 0.0000000000000000 0.0000000000000000 
lattice_vector 0.0000000000000000 11.3550000000000004 0.0000000000000000 
lattice_vector 0.0000000000000000 0.0000000000000000 28.5398999999999958 
atom 1.8927741690333917 2.8398319867026118 8.3248779413188085 Ti
atom 0.0004898577807100 2.8386590518625949 5.9460992305492395 Ti
atom 1.8925058300074860 0.9462500564478505 1.1891538564373558 Ti
atom -0.0000115277857423 0.9462501691886547 3.5675332369811645 Ti
atom 1.8924344330404135 2.8387223241953059 0.7811579869227210 O
atom 0.0006425747986871 2.8388990278010544 7.9165025605954762 O
atom 1.8928463678900260 0.9462495683182327 8.7326763404117518 O
atom -0.0000279195193181 0.9462500180202542 1.5971886526831769 O
atom 0.0001030090953569 0.9462502956340437 5.5379978620398917 O
atom 1.8924551295537746 0.9462503857026556 3.1594560546681199 O
atom 0.0000619343583462 2.8386509108987887 3.9756408078260090 O
atom 1.8925982605118166 2.8389734261111919 6.3540510945676800 O
atom 1.8759154397784272 2.8399047858861084 17.8444519320084893 Ti
atom -0.0041777266028479 2.8345720289138425 15.4591189098208570 Ti
atom 1.8955237541704510 0.9462482790581683 10.7012317021123256 Ti
atom 0.0005047610761527 0.9462502985512817 13.0735840299860140 Ti
atom 1.8988052548073076 2.8394038164845452 10.2948531140439954 O
atom -0.0059295097023772 2.8405242387643681 17.4353576472390799 O
atom 1.8845027666719825 0.9462492638572876 18.2541996876591064 O
atom 0.0024738237828851 0.9462505388129494 11.1057605676979385 O
atom -0.0123428771525004 0.9462499863506288 15.0444071356781564 O
atom 1.8943802999175130 0.9462503934494613 12.6734319133391811 O
atom 0.0017708637177522 2.8328201452806470 13.4828609457951067 O
atom 1.8810807896856356 2.8167141001537401 15.8809237762303255 O
atom 1.8921770349545610 2.8387307284255354 27.3507314960776959 Ti
atom -0.0000911526865911 2.8392401240971510 24.9721359670920506 Ti
atom 1.8931065498968682 0.9462483189161313 20.2194151986846435 Ti
atom 0.0002418624740511 0.9462516118941956 22.5957868057462825 Ti
atom 1.8909017169392797 2.8400718596016423 19.8148787091339571 O
atom -0.0000991346014560 2.8388115236446554 26.9425756655550117 O
atom 1.8924672543524750 0.9462500843345356 27.7586539848262852 O
atom -0.0002740647341036 0.9462494498309245 20.6261328264401556 O
atom -0.0002167150904608 0.9462508909497231 24.5649832779636768 O
atom 1.8926341790708514 0.9462499999702259 22.1903140463291741 O
atom 0.0001495512807496 2.8393931220466588 23.0017145653815263 O
atom 1.8923415556544518 2.8388057047660040 25.3803944339858525 O
atom 1.8926019051963452 6.6237495589533522 8.3241367611891484 Ti
atom 0.0005386561905366 6.6237500562817342 5.9450963039024138 Ti
atom 1.8925215505972210 4.7312708191275288 1.1891499421911687 Ti
atom -0.0000193968403659 4.7309269554998892 3.5674841779222213 Ti
atom 1.8924420320326758 6.6237501207657887 0.7812359002297452 O
atom 0.0005913751876934 6.6237499723664897 7.9156159743308772 O
atom 1.8948201367120281 4.7317917114398957 8.7332097561595763 O
atom -0.0000275915627371 4.7311849213631882 1.5971762068229032 O
atom 0.0000552823993193 4.7310913958773657 5.5378398235965207 O
atom 1.8924633655220684 4.7312281982875461 3.1594929441442043 O
atom 0.0000455692029839 6.6237500071371382 3.9752851436469210 O
atom 1.8926186265050455 6.6237496919847541 6.3538112543073426 O
atom 1.8638628843343834 6.6237491649029225 17.8246827675620310 Ti
atom -0.0146425459746515 6.6237501041040927 15.4120347877302137 Ti
atom 1.8933029305875397 4.7325150846377202 10.7048110544261643 Ti
atom 0.0011547748156211 4.7146639972484490 13.0737656452920881 Ti
atom 1.8931350301562511 6.6237497040183309 10.2958885146908372 O
atom -0.0015207198799940 6.6237492605093378 17.4141374415541819 O
atom 1.8787313108274908 4.7279342851156194 18.2435431348007882 O
atom 0.0013220576829057 4.7296497510432820 11.1033557387878492 O
atom -0.0220350296278211 4.7198295327467203 15.0373109274744223 O
atom 1.8891836520113034 4.7174773181475329 12.6746740871392856 O
atom -0.0015017977558051 6.6237500321286973 13.4740621272375023 O
atom 1.8461194372753122 6.6237502477848187 15.8419298799021657 O
atom 1.8923150069006236 6.6237500387204111 27.3507011610371045 Ti
atom -0.0001444026829886 6.6237508764184847 24.9721637765558668 Ti
atom 1.8937656059162302 4.7320527663411989 20.2134233035462643 Ti
atom 0.0010820309887141 4.7315254834211480 22.5933386699723968 Ti
atom 1.9018657858781700 6.6237494077915473 19.7937219507914932 O
atom -0.0000810140232589 6.6237502436764970 26.9427991585362463 O
atom 1.8924775903687441 4.7312132129687017 27.7587237743204227 O
atom 0.0006539950278813 4.7375531811297389 20.6233816929299145 O
atom 0.0002228722329746 4.7313493144065264 24.5641833225190780 O
atom 1.8930423550843132 4.7335698094460072 22.1850068239511593 O
atom -0.0004174581770853 6.6237508882092495 23.0022338542066294 O
atom 1.8924007234487794 6.6237505235477352 25.3804843899860231 O
atom 1.8927738983541698 10.4076674555496282 8.3248778419752103 Ti
atom 0.0004891204013002 10.4088410378098750 5.9460988314416650 Ti
atom 1.8925215290271489 8.5162294090851081 1.1891852076456089 Ti
atom -0.0000193559352989 8.5165730304090417 3.5674843030187211 Ti
atom 1.8924345115725514 10.4087778801727122 0.7811579893215532 O
atom 0.0006424820744658 10.4086005203429046 7.9165021191156519 O
atom 1.8948205761509891 8.5157073295377792 8.7332093675674720 O
atom -0.0000276204509594 8.5163153538390688 1.5971761515917784 O
atom 0.0000554943375001 8.5164084259896882 5.5378396881158221 O
atom 1.8924633793117129 8.5162715753158977 3.1594929571803023 O
atom 0.0000621030219366 10.4088492219517654 3.9756405288757999 O
atom 1.8925983631692957 10.4085267757247699 6.3540511872205307 O
atom 1.8759152723729786 10.4075934282237608 17.8444520649284364 Ti
atom -0.0041777160639367 10.4129281751828522 15.4591190239286060 Ti
atom 1.8933030439816210 8.5149837190677768 10.7048108575098535 Ti
atom 0.0011548040240775 8.5328366338843029 13.0737657679396335 Ti
atom 1.8988039324343406 10.4080950965003929 10.2948530857091392 O
atom -0.0059294725068601 10.4069742310622644 17.4353576709139517 O
atom 1.8787312670375862 8.5195641719285184 18.2435432345699908 O
atom 0.0013221692236999 8.5178497399914352 11.1033557691710651 O
atom -0.0220351898447164 8.5276705675673750 15.0373108530065842 O
atom 1.8891837353426948 8.5300221146498316 12.6746737806237295 O
atom 0.0017717026865380 10.4146799127566219 13.4828609176913901 O
atom 1.8810807051327725 10.4307859937255003 15.8809239567119374 O
atom 1.8921769639959021 10.4087695054679141 27.3507313418437725 Ti
atom -0.0000912344246866 10.4082615732912505 24.9721359255338022 Ti
atom 1.8937655744165243 8.5154441346935936 20.2134234892176110 Ti
atom 0.0010819576059531 8.5159774993699813 22.5933387483656603 Ti
atom 1.8909018488532063 10.4074268752871539 19.8148789005003074 O
atom -0.0000991801797222 10.4086888700058164 26.9425756815459465 O
atom 1.8924776383653827 8.5162870645410553 27.7587236493019276 O
atom 0.0006540049091968 8.5099456675574334 20.6233817400834312 O
atom 0.0002230970023301 8.5161525030766647 24.5641833867399519 O
atom 1.8930423065815387 8.5139309102653247 22.1850069379326769 O
atom 0.0001491123297555 10.4081086748079592 23.0017145353420425 O
atom 1.8923414992655354 10.4086955150093790 25.3803943734030106 O
atom 5.6772258725669182 2.8398317619716349 8.3248771510021804 Ti
atom 3.7849996565228099 2.8386050737167592 5.9460713187433889 Ti
atom 5.6774942112368789 0.9462500242488766 1.1891540926551090 Ti
atom 3.7849997302601102 0.9462500481881467 3.5674252547563827 Ti
atom 5.6775653756197713 2.8387225537431204 0.7811582395468748 O
atom 3.7850000086630717 2.8383310936709920 7.9159829434320521 O
atom 5.6771538859448274 0.9462495524798570 8.7326764060688156 O
atom 3.7849997865052933 0.9462501231735758 1.5970822844113666 O
atom 3.7849995965979781 0.9462500427073145 5.5377681423970531 O
atom 5.6775448750913826 0.9462496482160807 3.1594568323504841 O
atom 3.7849994907905513 2.8386691204941492 3.9754178514501062 O
atom 5.6774016650405201 2.8389731035245505 6.3540510610820613 O
atom 5.6940839617834724 2.8399047237045281 17.8444519260453198 Ti
atom 3.7849996168440980 2.8241056916875813 15.5061958845840095 Ti
atom 5.6744768696096113 0.9462496102580639 10.7012320356018336 Ti
atom 3.7850005251914327 0.9462514942333674 13.0877721804291909 Ti
atom 5.6711953816948784 2.8394040608153053 10.2948530048288411 O
atom 3.7849997234395434 2.8372465145211150 17.4441525707848406 O
atom 5.6854965641616317 0.9462492966978574 18.2541996071125574 O
atom 3.7850000819254821 0.9462488291593483 11.1158569360022579 O
atom 3.7849999113498423 0.9462502809172207 15.0619527845192422 O
atom 5.6756201413505085 0.9462499945462149 12.6734316635157143 O
atom 3.7850006234291076 2.8372267182794477 13.5040726953571557 O
atom 5.6889186622046939 2.8167143318570504 15.8809238449650323 O
atom 5.6778228985322707 2.8387304113045695 27.3507322945828939 Ti
atom 3.7850003500461891 2.8392887115160450 24.9731383354106775 Ti
atom 5.6768934082185316 0.9462483145354527 20.2194150996438538 Ti
atom 3.7850000554770320 0.9462507386968271 22.5967704534059379 Ti
atom 5.6790982859675561 2.8400717797648372 19.8148785851681914 O
atom 3.7850000327343798 2.8387958662235984 26.9429315293595444 O
atom 5.6775327675431901 0.9462500518831821 27.7586547415578373 O
atom 3.7849999999711095 0.9462488297630969 20.6257699214604244 O
atom 3.7850001133016682 0.9462502791135977 24.5658538294506634 O
atom 5.6773657518044098 0.9462499748825748 22.1903140951882527 O
atom 3.7849999474797773 2.8393416201032804 23.0026008791183649 O
atom 5.6776585537204145 2.8388051821974560 25.3803943934149316 O
atom 5.6773982294884213 6.6237497729856871 8.3241360287743635 Ti
atom 3.7849997061103817 6.6237499851962554 5.9455987424323640 Ti
atom 5.6774785068180202 4.7312721866191536 1.1891673005763277 Ti
atom 3.7849998721549962 4.7310651276241638 3.5675151987498777 Ti
atom 5.6775582984436834 6.6237501726732413 0.7812363492419058 O
atom 3.7850000319179671 6.6237493465604071 7.9156687513135147 O
atom 5.6751798910149374 4.7317917328701942 8.7332092179978851 O
atom 3.7850001053080731 4.7311926548852581 1.5970982013727355 O
atom 3.7849997436972771 4.7311506508273977 5.5377504807813374 O
atom 5.6775366202287234 4.7312277757952366 3.1594931711450371 O
atom 3.7850002638609772 6.6237499988445805 3.9753309696856105 O
atom 5.6773813623729223 6.6237501848482268 6.3538113211740050 O
atom 5.7061369929529864 6.6237491231753456 17.8246828080598725 Ti
atom 3.7849999152657139 6.6237503230098467 15.4591046269870063 Pd
atom 5.6766974440073916 4.7325150826440705 10.7048109196637213 Ti
atom 3.7850004890543927 4.7026094146348374 13.0935268568722680 Ti
atom 5.6768654303774788 6.6237494393704122 10.2958884510912849 O
atom 3.7849997623376579 6.6237492673437792 17.4335695806793716 O
atom 5.6912682462678372 4.7279342510406464 18.2435429710587727 O
atom 3.7850004539606767 4.7406211946980052 11.1245080302768127 O
atom 3.7849997961182678 4.6848662563176706 15.0762904488354295 O
atom 5.6808167913341441 4.7174771593268172 12.6746733569139991 O
atom 3.7850009380736416 6.6237503622237766 13.4846342467977252 O
atom 5.7238801856921979 6.6237501129682625 15.8419300305861821 O
atom 5.6776851445494323 6.6237501375010330 27.3507018699304680 Ti
atom 3.7849989807738802 6.6237502804287338 24.9726365314070549 Ti
atom 5.6762344203376731 4.7320527454884251 20.2134232192218093 Ti
atom 3.7850000564840522 4.7313525486666119 22.5940794153157078 Ti
atom 5.6681341745199108 6.6237494111940904 19.7937218351103681 O
atom 3.7850000524783751 6.6237499462590845 26.9428870097435151 O
atom 5.6775222977008823 4.7312131954770758 27.7587237055755622 O
atom 3.7849999445511773 4.7318889282851426 20.6223447075102015 O
atom 3.7850004755693787 4.7313688034687464 24.5644228377271538 O
atom 5.6769575950246800 4.7335690363919456 22.1850067926099790 O
atom 3.7850003480054588 6.6237504216001835 23.0025485897680788 O
atom 5.6775991070601215 6.6237505275181796 25.3804845447089207 O
atom 5.6772259095232576 10.4076674768716995 8.3248771395617087 Ti
atom 3.7850009796537103 10.4088950011741144 5.9460714052197696 Ti
atom 5.6774784376845622 8.5162280764496927 1.1891673270672793 Ti
atom 3.7849998260345616 8.5164349417383978 3.5675153122898764 Ti
atom 5.6775654846413923 10.4087775996161369 0.7811581657514894 O
atom 3.7849999901573730 10.4091683763521363 7.9159829519542821 O
atom 5.6751796352476562 8.5157073291188254 8.7332094779981233 O
atom 3.7850001782442635 8.5163074765783087 1.5970982980527053 O
atom 3.7849994221249061 8.5163492840658108 5.5377506192094605 O
atom 5.6775366150622597 8.5162727364869379 3.1594932563484912 O
atom 3.7849990876902950 10.4088309289980447 3.9754179404501251 O
atom 5.6774018517565592 10.4085266090230242 6.3540509596519481 O
atom 5.6940840315248611 10.4075935388256209 17.8444520470077741 Ti
atom 3.7849995759980417 10.4233950431301174 15.5061960944038582 Ti
atom 5.6766974006745334 8.5149824238006833 10.7048111806926354 Ti
atom 3.7850004073817884 8.5448937880435256 13.0935269284311957 Ti
atom 5.6711961918698233 10.4080951211834591 10.2948527880016947 O
atom 3.7849996798966656 10.4102515643757076 17.4441523927991291 O
atom 5.6912682741189968 8.5195641728641114 18.2435430520701480 O
atom 3.7850000678862963 8.5068787338922007 11.1245077965334218 O
atom 3.7849999759088817 8.5626345894933067 15.0762900608077590 O
atom 5.6808167254565198 8.5300226827459138 12.6746734968032708 O
atom 3.7849998932826527 10.4102742645822097 13.5040724330753417 O
atom 5.6889186824953581 10.4307859276367729 15.8809239536830322 O
atom 5.6778229691444935 10.4087697269186563 27.3507321690541865 Ti
atom 3.7850003586588219 10.4082117541554062 24.9731385331176021 Ti
atom 5.6762344459242868 8.5154441605135069 20.2134233721196566 Ti
atom 3.7850001063792065 8.5161493801114343 22.5940794733456940 Ti
atom 5.6790981795892970 10.4074269531944150 19.8148787452244477 O
atom 3.7850000613027581 10.4087041840416301 26.9429313035463203 O
atom 5.6775222403590622 8.5162871153140500 27.7587237309141557 O
atom 3.7849999474970435 8.5156083636402933 20.6223449026994992 O
atom 3.7850004628126621 8.5161317992569607 24.5644230064750246 O
atom 5.6769576501333718 8.5139317079136401 22.1850069027475598 O
atom 3.7849999295497962 10.4081589309499005 23.0026008876577741 O
atom 5.6776586043064858 10.4086960336832242 25.3803943205037044 O
atom 9.4625000180944685 2.8389918297779002 8.3224296871124324 Ti
atom 7.5695105736453234 2.8386590273621271 5.9460990145610966 Ti
atom 9.4625000030373982 0.9462500662992314 1.1891675424277310 Ti
atom 7.5700118516195287 0.9462500657085072 3.5675329514501226 Ti
atom 9.4625002430432748 2.8387219536748951 0.7811456049946041 O
atom 7.5693575645372970 2.8388991455199233 7.9165020504658088 O
atom 9.4624999478427796 0.9462500559386857 8.7289003924302975 O
atom 7.5700281883812330 0.9462502128546092 1.5971890457747357 O
atom 7.5698974865458384 0.9462499060231371 5.5379980898148302 O
atom 9.4625000535881139 0.9462500171617606 3.1595434371665210 O
atom 7.5699386388761347 2.8386509236825024 3.9756406579661205 O
atom 9.4625002005214061 2.8385336440490896 6.3532514513994087 O
atom 9.4624995477565452 2.8392545884027456 17.8446339695500527 Ti
atom 7.5741768801078928 2.8345719778853287 15.4591189161585909 Ti
atom 9.4625002370991975 0.9462501877839858 10.6989192076200794 Ti
atom 7.5694960461122172 0.9462502296695670 13.0735836599708364 Ti
atom 9.4625001037007177 2.8384758002758135 10.2921017789491973 O
atom 7.5759288593656722 2.8405242124143459 17.4353576604116078 O
atom 9.4624996526878071 0.9462495667229138 18.2528688270949146 O
atom 7.5675266659203544 0.9462501927362698 11.1057606148620671 O
atom 7.5823418400836529 0.9462500718816385 15.0444071045458099 O
atom 9.4625001258122392 0.9462496906031200 12.6653479639426045 O
atom 7.5682289853251561 2.8328201183339989 13.4828608233160114 O
atom 9.4624995894741701 2.8264036206087608 15.8738280192477124 O
atom 9.4625001089820131 2.8387383224162503 27.3506831310952165 Ti
atom 7.5700908653309122 2.8392401914874132 24.9721362299648106 Ti
atom 9.4625000269725188 0.9462491056624976 20.2193159183761502 Ti
atom 7.5697580823148947 0.9462516197068036 22.5957869409753265 Ti
atom 9.4624998430193106 2.8412236340962580 19.8124735342801159 O
atom 7.5700991571863279 2.8388116982526737 26.9425762624948888 O
atom 9.4625000358012255 0.9462501325049655 27.7586734081035296 O
atom 7.5702739531372982 0.9462494570598233 20.6261327621324497 O
atom 7.5702166465592571 0.9462508939097894 24.5649835262055340 O
atom 9.4625000053352544 0.9462515362350690 22.1893161215861880 O
atom 7.5698505168786134 2.8393931190289288 23.0017149026984349 O
atom 9.4624999455308210 2.8388534513422434 25.3802362626442672 O
atom 9.4624999299223305 6.6237500547366261 8.3214461164655535 Ti
atom 7.5694617344694928 6.6237500274075387 5.9450960585107309 Ti
atom 9.4624999800435532 4.7312556790577345 1.1891808992946156 Ti
atom 7.5700195816482188 4.7309269128595828 3.5674843871252988 Ti
atom 9.4624997209955826 6.6237501735824882 0.7812520028618708 O
atom 7.5694087232756830 6.6237498083303006 7.9156153325133278 O
atom 9.4625000846871927 4.7313841097935505 8.7279025107134931 O
atom 7.5700275391053333 4.7311845712115472 1.5971762306447770 O
atom 7.5699450607463170 4.7310914781753475 5.5378396869787156 O
atom 9.4625000701882200 4.7312173039675764 3.1595621991597511 O
atom 7.5699542312334822 6.6237499998975897 3.9752849045121499 O
atom 9.4625001268621300 6.6237501538127690 6.3523804072227845 O
atom 9.4624997660346910 6.6237496230345521 17.8304364421969339 Ti
atom 7.5846420627962612 6.6237501685340474 15.4120347003242788 Ti
atom 9.4625002335594566 4.7318565596893984 10.6988193978256323 Ti
atom 7.5688456416882541 4.7146639477339320 13.0737655437605937 Ti
atom 9.4625001716039776 6.6237499570356544 10.2924644199969162 O
atom 7.5715203048354711 6.6237492922456296 17.4141374655165571 O
atom 9.4624996915991151 4.7331316531308119 18.2447845652477767 O
atom 7.5686780355093575 4.7296498306159203 11.1033555672765427 O
atom 7.5920342723505447 4.7198295571838464 15.0373106366408908 O
atom 9.4625001102399526 4.7232552112579844 12.6640166049860916 O
atom 7.5715018093172670 6.6237500309720785 13.4740619727515316 O
atom 9.4624996532636310 6.6237500668176619 15.8562784717489187 O
atom 9.4624998914250789 6.6237501174027820 27.3507915666288994 Ti
atom 7.5701454825280736 6.6237508755392884 24.9721635757325160 Ti
atom 9.4624999886425432 4.7342749508268964 20.2170023051527714 Ti
atom 7.5689179439245065 4.7315253908960093 22.5933391029795345 Ti
atom 9.4625001063453258 6.6237494874807918 19.8023759737931471 O
atom 7.5700810186427319 6.6237502103752544 26.9427990851884509 O
atom 9.4625001684319159 4.7312049943456200 27.7587603864745169 O
atom 7.5693460193643993 4.7375533708714404 20.6233814684465386 O
atom 7.5697767051350144 4.7313489206591361 24.5641834064563582 O
atom 9.4625000360900327 4.7315975657017537 22.1855407472059660 O
atom 7.5704171363059158 6.6237509027132573 23.0022337193748676 O
atom 9.4625002277263821 6.6237510077443424 25.3804666347007171 O
atom 9.4625002479963403 10.4085082866906316 8.3224298604751858 Ti
atom 7.5695100044923285 10.4088410892508421 5.9460990635557147 Ti
atom 9.4625000706023741 8.5162445888746827 1.1891809837453018 Ti
atom 7.5700195837013800 8.5165731764699704 3.5674842739314836 Ti
atom 9.4625000538762016 10.4087783110052268 0.7811456484803900 O
atom 7.5693576877886288 10.4086005660624838 7.9165022458629046 O
atom 9.4624999161940959 8.5161158881739993 8.7279026725445785 O
atom 7.5700274946952106 8.5163155085809983 1.5971763708152955 O
atom 7.5699451732715612 8.5164087324160622 5.5378397426556303 O
atom 9.4625000610829595 8.5162828740586285 3.1595622670211556 O
atom 7.5699388765163889 10.4088492162314878 3.9756408166641588 O
atom 9.4624999217775976 10.4089665536855271 6.3532511462881756 O
atom 9.4624996505439718 10.4082446491406166 17.8446343137430468 Ti
atom 7.5741769020658136 10.4129281724463958 15.4591190962609186 Ti
atom 9.4625001744292714 8.5156432716914203 10.6988194942594781 Ti
atom 7.5688457129390398 8.5328367312271851 13.0737654106313101 Ti
atom 9.4625006119201949 10.4090243678860723 10.2921017784071918 O
atom 7.5759288686357795 10.4069742232969702 17.4353578344213425 O
atom 9.4624997032350890 8.5143674109818885 18.2447846752715073 O
atom 7.5686783113871883 8.5178500087241567 11.1033557631034920 O
atom 7.5920342995882670 8.5276704714691363 15.0373107563595312 O
atom 9.4625001032555609 8.5242450201540532 12.6640168374122482 O
atom 7.5682288924677081 10.4146799445869274 13.4828608944762305 O
atom 9.4624996560447272 10.4210964451012238 15.8738278929012768 O
atom 9.4625001129051842 10.4087618428056690 27.3506831124751599 Ti
atom 7.5700909341339155 10.4082615037747921 24.9721361782614366 Ti
atom 9.4624999913750436 8.5132225572279907 20.2170023893484192 Ti
atom 7.5689179716843622 8.5159775869238707 22.5933391306367000 Ti
atom 9.4624998173682933 10.4062755104949503 19.8124735125623630 O
atom 7.5700991731324727 10.4086887276575286 26.9425762438871423 O
atom 9.4625001767527834 8.5162954089243215 27.7587604489662780 O
atom 7.5693460051621555 8.5099454710231530 20.6233814943016291 O
atom 7.5697764932729346 8.5161528931679022 24.5641834600718489 O
atom 9.4625000286994805 8.5159046621606915 22.1855407618045533 O
atom 7.5698509730992054 10.4081086630446684 23.0017148508944977 O
atom 9.4624999500740756 10.4086481474591359 25.3802361921266666 O
