#=======================================================
# FHI-aims file: ./geometry.in
# Created using the Atomic Simulation Environment (ASE)
# Mon Aug 21 17:26:29 2023
#=======================================================
lattice_vector 5.4177999999999997 0.0000000000000000 0.0000000000000000 
lattice_vector 0.0000000000000000 5.4177999999999997 0.0000000000000000 
lattice_vector 0.0000000000000000 0.0000000000000000 5.4177999999999997 
atom_frac 0.0000000000000000 0.0000000000000000 0.0000000000000000 Ce
atom_frac 0.0000000000000000 0.5000000000000000 0.5000000000000000 Ce
atom_frac 0.5000000000000000 0.0000000000000000 0.5000000000000000 Ce
atom_frac 0.5000000000000000 0.5000000000000000 0.0000000000000000 Ce
atom_frac 0.2500000000000000 0.2500000000000000 0.7500000000000000 O
atom_frac 0.2500000000000000 0.7500000000000000 0.2500000000000000 O
atom_frac 0.7500000000000000 0.2500000000000000 0.2500000000000000 O
atom_frac 0.7500000000000000 0.7500000000000000 0.7500000000000000 O
atom_frac 0.7500000000000000 0.7500000000000000 0.2500000000000000 O
atom_frac 0.7500000000000000 0.2500000000000000 0.7500000000000000 O
atom_frac 0.2500000000000000 0.7500000000000000 0.7500000000000000 O
atom_frac 0.2500000000000000 0.2500000000000000 0.2500000000000000 O
