#=======================================================
# FHI-aims file: ./geometry.in
# Created using the Atomic Simulation Environment (ASE)
# Wed Jul 17 09:54:06 2024
#=======================================================
lattice_vector 13.7870999999999988 0.0000000000000000 0.0000000000000000 
lattice_vector 0.0000000000000000 13.7870999999999988 0.0000000000000000 
lattice_vector 0.0000000000000000 0.0000000000000000 8.8766999999999996 
atom_frac 0.1643967971180339 0.1643973611960955 0.1705452821138261 Ti
atom_frac 0.0000000044363243 -0.0000000181608164 0.0000000005088480 Ti
atom_frac 0.0641811932842326 0.2683230899314202 0.1666637933443127 O
atom_frac 0.2683204926436476 0.0641783889993190 0.1666637992158264 O
atom_frac 0.1014756258348718 0.1014784466528161 0.0000000007622067 O
atom_frac 0.2316204548819240 0.2316176555610794 0.0000000039414614 O
atom_frac 0.1721477794478520 0.1721461345234093 0.5000000012532922 Ti
atom_frac 0.0000000260646742 -0.0000000061333826 0.3395995400120539 Ti
atom_frac 0.0648501176599184 0.2688597266470600 0.4999999996768845 O
atom_frac 0.2688571420897963 0.0648475345973713 0.4999999998750106 O
atom_frac 0.1017979487506738 0.1018004777767386 0.3326646220284519 O
atom_frac 0.2310815263403702 0.2310788395097780 0.3325838707944995 O
atom_frac 0.1643967851215263 0.1643973441250250 0.8294547012095883 Ti
atom_frac -0.0000000191156290 -0.0000000095385130 0.6604004634182807 Ti
atom_frac 0.0641811938806354 0.2683230902500553 0.8333362084379650 O
atom_frac 0.2683204921660299 0.0641783883845863 0.8333362018774491 O
atom_frac 0.1017979469883549 0.1018004789909976 0.6673353766702701 O
atom_frac 0.2310815259216751 0.2310788390806126 0.6674161286294231 O
atom_frac 0.1686356331673673 0.4986238255587211 0.1670623529996335 Ti
atom_frac -0.0017185037433949 0.3357311096799940 0.0000000025577516 Ti
atom_frac 0.0645752363793670 0.6017186589899974 0.1668431957493776 O
atom_frac 0.2693996911800052 0.3988784047991905 0.1665794430884941 O
atom_frac 0.1023648417281227 0.4349011111668774 0.0000000010505227 O
atom_frac 0.2310976522091408 0.5651638952574922 -0.0000000004272761 O
atom_frac 0.1637119236691448 0.5022414290325271 0.4999999926796705 Ti
atom_frac 0.0007232830018108 0.3320677632429154 0.3318549062336191 Ti
atom_frac 0.0648625125484472 0.6017341029873025 0.5000000001051621 O
atom_frac 0.2690057895733372 0.3980832327168648 0.5000000005079976 O
atom_frac 0.1020591123268994 0.4350584980330941 0.3332608439188954 O
atom_frac 0.2317677730774600 0.5642128877951493 0.3333901551430118 O
atom_frac 0.1686356329586642 0.4986238388476072 0.8329376458029456 Ti
atom_frac 0.0007232997364020 0.3320677710725766 0.6681450957433732 Ti
atom_frac 0.0645752363275019 0.6017186582843698 0.8331568039242699 O
atom_frac 0.2693996910663023 0.3988784046674220 0.8334205589038813 O
atom_frac 0.1020591116625876 0.4350584970260698 0.6667391568375909 O
atom_frac 0.2317677721697345 0.5642128887451842 0.6666098470962778 O
atom_frac 0.1641679055792463 0.8358323885486856 0.1668403177918287 Ti
atom_frac 0.0017184721895820 0.6642689512143589 0.0000000029356681 Ti
atom_frac 0.0651669462592445 0.9348358350522772 0.1659099301222026 O
atom_frac 0.2692690991404902 0.7307282644647172 0.1677862770661821 O
atom_frac 0.1026694576093421 0.7680182793839022 -0.0000000006727390 O
atom_frac 0.2319843836142369 0.8973279189366937 0.0000000008474585 O
atom_frac 0.1739663037071179 0.8260325267385170 0.4999999957221140 Ti
atom_frac -0.0007233039893040 0.6679322450181260 0.3318549028433692 Ti
atom_frac 0.0643192412629475 0.9356832097736374 0.5000000033263924 O
atom_frac 0.2703629175276190 0.7296342067485000 0.5000000005794673 O
atom_frac 0.1024871918896569 0.7681166797229103 0.3336740886469823 O
atom_frac 0.2318860996440388 0.8975101743093522 0.3336744774521992 O
atom_frac 0.1641678849026795 0.8358323914151747 0.8331596753160194 Ti
atom_frac -0.0007233129441618 0.6679322426639025 0.6681450957817258 Ti
atom_frac 0.0651669462806562 0.9348358358510468 0.8340900720642412 O
atom_frac 0.2692691003034495 0.7307282630567216 0.8322137235819841 O
atom_frac 0.1024871909873911 0.7681166801638759 0.6663259127154038 O
atom_frac 0.2318861007593556 0.8975101741936872 0.6663255230938351 O
atom_frac 0.4986241550162932 0.1686365592665730 0.1670617183089210 Ti
atom_frac 0.3357309633082379 -0.0017174378397190 -0.0000000020713060 Ti
atom_frac 0.3988810862303181 0.2694023383276893 0.1665796338082351 O
atom_frac 0.6017160701470728 0.0645726174127695 0.1668432372311761 O
atom_frac 0.4348985239836113 0.1023676314272042 0.0000000009485716 O
atom_frac 0.5651664051438150 0.2310951646387602 0.0000000004401854 O
atom_frac 0.5022395125929160 0.1637102194876299 0.4999999997944980 Ti
atom_frac 0.3320675511681792 0.0007221099669279 0.3318541266675052 Ti
atom_frac 0.3980857793576444 0.2690081275227008 0.5000000003756865 O
atom_frac 0.6017311473691502 0.0648596851996211 0.4999999997985421 O
atom_frac 0.4350559163489582 0.1020618080770292 0.3332606948372910 O
atom_frac 0.5642156280602069 0.2317653813960115 0.3333903954644565 O
atom_frac 0.4986241470543666 0.1686365531107258 0.8329382740808245 Ti
atom_frac 0.3320675481441291 0.0007220940960506 0.6681458767582614 Ti
atom_frac 0.3988810843793369 0.2694023371597989 0.8334203686908896 O
atom_frac 0.6017160708977041 0.0645726174615910 0.8331567628361223 O
atom_frac 0.4350559172656371 0.1020618079035238 0.6667393056478453 O
atom_frac 0.5642156271325851 0.2317653820419637 0.6666096052234377 O
atom_frac 0.5000000141394509 0.4999999931992863 0.1624138476229628 Ti
atom_frac 0.3278956470481899 0.3278958641100403 -0.0000000028607488 Ti
atom_frac 0.3986735667395390 0.6013288728814318 0.1667974324255837 O
atom_frac 0.6013264450479882 0.3986711170933422 0.1667974321305544 O
atom_frac 0.4358851128967634 0.4358876600730499 0.0000000025602697 O
atom_frac 0.5641148918916842 0.5641123332233418 0.0000000003535328 O
atom_frac 0.5000000038863941 0.4999999909516942 0.5000000005425713 Co
atom_frac 0.3393441946102408 0.3393443272752396 0.3365464397196307 Ti
atom_frac 0.4008956602080442 0.5991066200138395 0.5000000017337628 O
atom_frac 0.5991043496617334 0.4008933670600009 0.4999999990432467 O
atom_frac 0.4361413726275467 0.4361434603183580 0.3378451307598402 O
atom_frac 0.5638586343310731 0.5638565287830375 0.3378451312173107 O
atom_frac 0.4999999898366594 0.4999999917344615 0.8375861616662585 Ti
atom_frac 0.3393441848495135 0.3393443277803432 0.6634535585619274 Ti
atom_frac 0.3986735660737746 0.6013288725764940 0.8332025679172207 O
atom_frac 0.6013264433852894 0.3986711161556240 0.8332025709190668 O
atom_frac 0.4361413725275123 0.4361434592430777 0.6621548719121828 O
atom_frac 0.5638586350267486 0.5638565257750672 0.6621548685737473 O
atom_frac 0.5013757840958137 0.8313635066570553 0.1670617184530995 Ti
atom_frac 0.3273701703036360 0.6726281387367542 0.0000000045681661 Ti
atom_frac 0.3982839439310585 0.9354273706661362 0.1668432360781578 O
atom_frac 0.6011189203233094 0.7305976562785412 0.1665796369100121 O
atom_frac 0.4348336045862912 0.7689048270004771 0.0000000012093491 O
atom_frac 0.5651014828254466 0.8976323634775404 0.0000000003888607 O
atom_frac 0.4977604733417802 0.8362897972118566 0.5000000026819328 Ti
atom_frac 0.3385976846710116 0.6614036405666750 0.3317778397551545 Ti
atom_frac 0.3982688651309618 0.9351403061072212 0.4999999999811269 O
atom_frac 0.6019142294764582 0.7309918603836363 0.5000000012034758 O
atom_frac 0.4357843811694054 0.7682346106405287 0.3333903940827637 O
atom_frac 0.5649440914542309 0.8979381865165709 0.3332606935944513 O
atom_frac 0.5013758055645563 0.8313635093067012 0.8329382688216344 Ti
atom_frac 0.3385976729107619 0.6614036549508406 0.6682221707279716 Ti
atom_frac 0.3982839435028654 0.9354273719526855 0.8331567648076059 O
atom_frac 0.6011189203180993 0.7305976556819131 0.8334203627897990 O
atom_frac 0.4357843806133697 0.7682346115065586 0.6666096057356765 O
atom_frac 0.5649440902853132 0.8979381854171034 0.6667393067814301 O
atom_frac 0.8358321248964072 0.1641675837360788 0.1668403151813422 Ti
atom_frac 0.6642689946262447 0.0017174927399354 0.0000000019103235 Ti
atom_frac 0.7307309117980323 0.2692717268670626 0.1677862794548135 O
atom_frac 0.9348330657162176 0.0651641501584303 0.1659099299365649 O
atom_frac 0.7680156279599317 0.1026720721084845 0.0000000002086656 O
atom_frac 0.8973305521102948 0.2319817098510042 -0.0000000004612986 O
atom_frac 0.8260336979327518 0.1739674638198861 0.4999999952297207 Ti
atom_frac 0.6679324329422771 -0.0007220934815892 0.3318541280630093 Ti
atom_frac 0.7296370938536422 0.2703657823529582 0.4999999997330942 O
atom_frac 0.9356807700330255 0.0643167735932141 0.4999999980145587 O
atom_frac 0.7681139109587821 0.1024898162546740 0.3336744775977123 O
atom_frac 0.8975128206022915 0.2318833090692897 0.3336740904112883 O
atom_frac 0.8358321306296682 0.1641676163332894 0.8331596852629597 Ti
atom_frac 0.6679324513255912 -0.0007220737364513 0.6681458770723986 Ti
atom_frac 0.7307309141237252 0.2692717266355009 0.8322137212986092 O
atom_frac 0.9348330664241435 0.0651641527683022 0.8340900706912878 O
atom_frac 0.7681139103198917 0.1024898157128264 0.6663255227205416 O
atom_frac 0.8975128210464590 0.2318833090024366 0.6663259101339495 O
atom_frac 0.8313643151487152 0.5013762365667607 0.1670623442530676 Ti
atom_frac 0.6726298519983462 0.3273718520290252 -0.0000000004896647 Ti
atom_frac 0.7306003120603347 0.6011215871594309 0.1665794392132194 O
atom_frac 0.9354247776170469 0.3982813296612418 0.1668431984439850 O
atom_frac 0.7689023583453654 0.4348360964114155 0.0000000004856883 O
atom_frac 0.8976351632581009 0.5650988830145895 0.0000000007533448 O
atom_frac 0.8362880527405996 0.4977585824992702 0.4999999959915373 Ti
atom_frac 0.6614023427759953 0.3385963395351027 0.3317778278706677 Ti
atom_frac 0.7309942186018492 0.6019167546362039 0.4999999984578154 O
atom_frac 0.9351374972878802 0.3982658867822952 0.5000000004681304 O
atom_frac 0.7682322365176112 0.4357871030448133 0.3333901559301698 O
atom_frac 0.8979408940636617 0.5649414979213860 0.3332608455383919 O
atom_frac 0.8313643152504003 0.5013762259145146 0.8329376514422695 Ti
atom_frac 0.6614023260929912 0.3385963499370780 0.6682221699466557 Ti
atom_frac 0.7306003120862746 0.6011215866099502 0.8334205616122938 O
atom_frac 0.9354247770562164 0.3982813300546749 0.8331568025641282 O
atom_frac 0.7682322349575567 0.4357871042228930 0.6666098443578228 O
atom_frac 0.8979408940893264 0.5649414975831474 0.6667391543456609 O
atom_frac 0.8356031562907065 0.8356027008067646 0.1705452880643092 Ti
atom_frac 0.6721042705877943 0.6721041997243360 0.0000000033546112 Ti
atom_frac 0.7316795217168727 0.9358216006679047 0.1666638031380636 O
atom_frac 0.9358188168301489 0.7316768965205213 0.1666637868636706 O
atom_frac 0.7683795442796642 0.7683823399076138 -0.0000000023808251 O
atom_frac 0.8985243851375981 0.8985215390898063 -0.0000000006059964 O
atom_frac 0.8278522026564019 0.8278538888758212 0.4999999885861679 Ti
atom_frac 0.6606557960623191 0.6606556863569306 0.3365464426811952 Ti
atom_frac 0.7311428680448445 0.9351524548931947 0.4999999999428667 O
atom_frac 0.9351498960063614 0.7311402672020972 0.5000000002559899 O
atom_frac 0.7689184815025600 0.7689211504762666 0.3325838720129592 O
atom_frac 0.8982020611062360 0.8981995087509859 0.3326646228343766 O
atom_frac 0.8356031367658913 0.8356026810559231 0.8294547056132962 Ti
atom_frac 0.6606557971136813 0.6606556661944659 0.6634535615686917 Ti
atom_frac 0.7316795205290401 0.9358215993883178 0.8333361966250802 O
atom_frac 0.9358188154933083 0.7316768957499407 0.8333362121680095 O
atom_frac 0.7689184827870343 0.7689211499974088 0.6674161270954521 O
atom_frac 0.8982020596718470 0.8981995114560810 0.6673353814274003 O
