#=======================================================
# FHI-aims file: ./geometry.in
# Created using the Atomic Simulation Environment (ASE)
# Thu Jul 18 06:31:02 2024
#=======================================================
lattice_vector 13.7870999999999988 0.0000000000000000 0.0000000000000000 
lattice_vector 0.0000000000000000 13.7870999999999988 0.0000000000000000 
lattice_vector 0.0000000000000000 0.0000000000000000 8.8766999999999996 
atom_frac 0.1628128197915812 0.1627437332656659 0.1666666241399846 Ti
atom_frac -0.0001139187312263 -0.0001252966997554 -0.0026861642707910 Ti
atom_frac 0.0645744797004067 0.2679226397000513 0.1666667455706771 O
atom_frac 0.2679182185035537 0.0645739291010896 0.1666665699303926 O
atom_frac 0.1010302355828103 0.1010322572232778 -0.0006443243310208 O
atom_frac 0.2299510259113587 0.2299491631207784 -0.0004164531621951 O
atom_frac 0.1651396891613110 0.1651649137014762 0.5001698483113404 Ti
atom_frac -0.0001139852727574 -0.0001253116466045 0.3360195475492914 Ti
atom_frac 0.0649483149003823 0.2680719923462088 0.5002022798179145 O
atom_frac 0.2680710056894149 0.0649455103239168 0.5001982310155720 O
atom_frac 0.1010301863659958 0.1010322583340901 0.3339776426499863 O
atom_frac 0.2299511399096016 0.2299490470273152 0.3337497218796980 O
atom_frac 0.1651404011932703 0.1651643301587714 0.8331633879916401 Ti
atom_frac 0.0011427110880585 0.0011771303398529 0.6666667074682500 Ti
atom_frac 0.0649482112138891 0.2680718902700822 0.8331310636060749 O
atom_frac 0.2680710739528685 0.0649456205729161 0.8331349422698496 O
atom_frac 0.1016835960710612 0.1016845087644157 0.6666666389117685 O
atom_frac 0.2316958694944064 0.2316940134529734 0.6666666388367443 O
atom_frac 0.1706000022173148 0.5050899898512036 0.1666666381373794 Ti
atom_frac 0.0011754819456365 0.3357921580222269 0.0009964726277082 Ti
atom_frac 0.0651009489724934 0.6020490190613483 0.1666667972199481 O
atom_frac 0.2659606006205865 0.3954027376650686 0.1666666309106077 O
atom_frac 0.1024335410295287 0.4353340915454332 -0.0005568707468166 O
atom_frac 0.2330220593290569 0.5644080060925331 -0.0000522352514364 O
atom_frac 0.1649925009327534 0.4979920084683738 0.4995187781007138 Ti
atom_frac 0.0011750399379580 0.3357927603103057 0.3323366354893991 Ti
atom_frac 0.0645544544286409 0.6018574314942436 0.5000283811407581 O
atom_frac 0.2697198047759209 0.3984475044617664 0.5000305432407957 O
atom_frac 0.1024332990174067 0.4353342789111828 0.3338902801783017 O
atom_frac 0.2330222691165832 0.5644077505583068 0.3333856270049568 O
atom_frac 0.1649923846119932 0.4979920426045218 0.8338146206622299 Ti
atom_frac -0.0014863567066756 0.3292744098955610 0.6666667717045144 Ti
atom_frac 0.0645543992969761 0.6018573974428981 0.8333050281816805 O
atom_frac 0.2697200704565487 0.3984477181350791 0.8333028052674041 O
atom_frac 0.1026937461997676 0.4348750778582188 0.6666667403527987 O
atom_frac 0.2324662452182086 0.5643277041357779 0.6666666439762471 O
atom_frac 0.1681811197830232 0.8404794562577692 0.1666666674428192 Ti
atom_frac 0.0022079291879742 0.6690833983849371 -0.0003381052283954 Ti
atom_frac 0.0660431831603232 0.9358307907585842 0.1666667115439342 O
atom_frac 0.2706085690846106 0.7311613148407572 0.1666666289673227 O
atom_frac 0.1028312669601552 0.7685039032416142 0.0005507140815143 O
atom_frac 0.2325729567801191 0.8978829994798760 -0.0005066588563046 O
atom_frac 0.1668535079048348 0.8299194133995065 0.5003355731675355 Ti
atom_frac 0.0022079618008995 0.6690832195277692 0.3336711899620569 Ti
atom_frac 0.0645970349842806 0.9348298411180042 0.4994010211721880 O
atom_frac 0.2698587186203508 0.7300115659982176 0.4999769174721339 O
atom_frac 0.1028312725628550 0.7685039591704194 0.3327827180228709 O
atom_frac 0.2325729515214204 0.8978829695310832 0.3338400476826639 O
atom_frac 0.1668536279880136 0.8299194974810796 0.8329977067667873 Ti
atom_frac -0.0031544121623898 0.6634073619763121 0.6666666210751893 Ti
atom_frac 0.0645971837414179 0.9348299952743720 0.8339324655771270 O
atom_frac 0.2698587564269597 0.7300115286360153 0.8333563412237149 O
atom_frac 0.1032120838443939 0.7682099798082858 0.6666667485234371 O
atom_frac 0.2318775952692748 0.8978704473759009 0.6666667875726853 O
atom_frac 0.5051042316742437 0.1705704729554281 0.1666666626492406 Ti
atom_frac 0.3358199550127439 0.0011480087947596 0.0009713697891489 Ti
atom_frac 0.3954048465907434 0.2659602326782409 0.1666666358726257 O
atom_frac 0.6020483798703458 0.0650969832818251 0.1666666006216388 O
atom_frac 0.4353343149706199 0.1024347954470892 -0.0005555659807847 O
atom_frac 0.5644109471649443 0.2330197418048435 -0.0000519957537238 O
atom_frac 0.4979824929357865 0.1650136594074904 0.4995196385156432 Ti
atom_frac 0.3358194728210327 0.0011484293855467 0.3323619932315014 Ti
atom_frac 0.3984509958441772 0.2697236686776472 0.5000303667673096 O
atom_frac 0.6018555025626141 0.0645520141750533 0.5000284876952502 O
atom_frac 0.4353342323931430 0.1024348438204547 0.3338888272103238 O
atom_frac 0.5644109757408676 0.2330196905782315 0.3333853599570182 O
atom_frac 0.4979824681514191 0.1650138261687189 0.8338137438065938 Ti
atom_frac 0.3292448366050721 -0.0014387953116020 0.6666664340301536 Ti
atom_frac 0.3984508798820551 0.2697234715472036 0.8333028914956300 O
atom_frac 0.6018556085548020 0.0645519741530000 0.8333049712798619 O
atom_frac 0.4348715443131453 0.1026991860069760 0.6666666368272742 O
atom_frac 0.5643302441886489 0.2324664417560167 0.6666666521683612 O
atom_frac 0.5079587159633581 0.5079815873815520 0.1666667016253428 Ti
atom_frac 0.3265653989408137 0.3265534434180579 0.0021662536149868 Ti
atom_frac 0.4004889732258460 0.6027105631477764 0.1666665960013447 O
atom_frac 0.6027081970428956 0.4004859050025742 0.1666667831889072 O
atom_frac 0.4320065074828369 0.4320093510138778 0.0107978044416820 O
atom_frac 0.5627099241798030 0.5627075013220632 -0.0061489873312772 O
atom_frac 0.4860148602573613 0.4860177532092048 0.4801770833349839 Ti
atom_frac 0.3265654533708691 0.3265533247037009 0.3311670433545498 Ti
atom_frac 0.4026320127137339 0.6003863184297571 0.5023081699356818 O
atom_frac 0.6003833998103867 0.4026339708926632 0.5023098027317614 O
atom_frac 0.4320063618355605 0.4320094921929471 0.3225355229274828 O
atom_frac 0.5627099056991164 0.5627075257368370 0.3394823578394098 O
atom_frac 0.4860148531577587 0.4860177842015890 0.8531562473002686 Ti
atom_frac 0.3293848149963796 0.3294144940317852 0.6666666130877457 Ti
atom_frac 0.4026321317974010 0.6003863607718978 0.8310249676363075 O
atom_frac 0.6003834019970459 0.4026339940948150 0.8310234700650179 O
atom_frac 0.4398518119489221 0.4398566623822528 0.6666666242524536 O
atom_frac 0.5069460081902619 0.8365280649812653 0.1666666554149905 Ti
atom_frac 0.3352248806205365 0.6698720539068472 0.0015874259458927 Ti
atom_frac 0.3994755483299479 0.9362067211240790 0.1666665419959690 O
atom_frac 0.6008348443371510 0.7291812569121854 0.1666666490531174 O
atom_frac 0.4358302286208062 0.7688183884441133 -0.0004320406962916 O
atom_frac 0.5664875020384613 0.8967940639298513 -0.0009911888630811 O
atom_frac 0.4962987222689169 0.8325038449153849 0.5004573961902734 Ti
atom_frac 0.3352248693836398 0.6698720059754212 0.3317459907245200 Ti
atom_frac 0.3988035237178660 0.9356193667554796 0.5002487920937799 O
atom_frac 0.6000257906939320 0.7273370665504093 0.5050667250699516 O
atom_frac 0.4358302017998024 0.7688183682113423 0.3337652767474188 O
atom_frac 0.5664874479300540 0.8967940886430323 0.3343244876804138 O
atom_frac 0.4962988834920494 0.8325036747112529 0.8328758493873852 Ti
atom_frac 0.3324852786684391 0.6602085361254980 0.6666666565269027 Ti
atom_frac 0.3988036167040711 0.9356193806243185 0.8330844058409670 O
atom_frac 0.6000258265032864 0.7273370603986580 0.8282665782706182 O
atom_frac 0.4345660316837496 0.7693531916326327 0.6666666342934532 O
atom_frac 0.5664045290573492 0.8969260262107164 0.6666666230745913 O
atom_frac 0.8404916606215945 0.1681635705878430 0.1666666569853285 Ti
atom_frac 0.6690918808497923 0.0021875948870378 -0.0003361052360600 Ti
atom_frac 0.7311629717008711 0.2706129823600621 0.1666666359367086 O
atom_frac 0.9358304601787869 0.0660363557941547 0.1666666961089398 O
atom_frac 0.7685025721622323 0.1028324648479050 0.0005516141267039 O
atom_frac 0.8978862307606880 0.2325665914867086 -0.0005097707585243 O
atom_frac 0.8298969352026880 0.1668715849572359 0.5003255717570123 Ti
atom_frac 0.6690920491792441 0.0021875224946310 0.3336693773898280 Ti
atom_frac 0.7300131077724344 0.2698599108408267 0.4999784580181154 O
atom_frac 0.9348296395812677 0.0645919750198121 0.4994017771488812 O
atom_frac 0.7685024675366023 0.1028325829542978 0.3327818543048903 O
atom_frac 0.8978862669137530 0.2325665032133613 0.3338431736754298 O
atom_frac 0.8298968398867457 0.1668715145093693 0.8330077622648215 Ti
atom_frac 0.6633826254275133 -0.0031157803183833 0.6666665705079147 Ti
atom_frac 0.7300130240910760 0.2698598835542336 0.8333550092119062 O
atom_frac 0.9348295836940953 0.0645919074023204 0.8339317142940649 O
atom_frac 0.7682055432414010 0.1032133766121821 0.6666666997863597 O
atom_frac 0.8978705686387373 0.2318760531491333 0.6666667416226481 O
atom_frac 0.8365542582751976 0.5069246492079911 0.1666666948303749 Ti
atom_frac 0.6698633355031330 0.3352269213807650 0.0016065083401803 Ti
atom_frac 0.7291855858370704 0.6008353310714271 0.1666666054183286 O
atom_frac 0.9362048406051262 0.3994700365186843 0.1666667485729724 O
atom_frac 0.7688154287150838 0.4358324994075744 -0.0004337216054402 O
atom_frac 0.8967975657477861 0.5664819807122481 -0.0009919325650463 O
atom_frac 0.8325033730696506 0.4962963011936099 0.5004493348746279 Ti
atom_frac 0.6698633747390923 0.3352267682952403 0.3317266113412009 Ti
atom_frac 0.7273375850168652 0.6000288342489375 0.5050727557244395 O
atom_frac 0.9356151015243278 0.3988005124986496 0.5002517053421922 O
atom_frac 0.7688155098114603 0.4358324489703930 0.3337672202600285 O
atom_frac 0.8967972260829921 0.5664822689389682 0.3343255635144265 O
atom_frac 0.8325036117824923 0.4962961144146370 0.8328840991572336 Ti
atom_frac 0.6602066536244837 0.3325028273977541 0.6666665301835295 Ti
atom_frac 0.7273375951549206 0.6000287903937209 0.8282605595451477 O
atom_frac 0.9356152580444504 0.3988005881766998 0.8330817172489530 O
atom_frac 0.7693494573924988 0.4345660798702255 0.6666668101359515 O
atom_frac 0.8969272885902151 0.5664031516587138 0.6666667046413276 O
atom_frac 0.8276914537353206 0.8276651984611438 0.1666665983025601 Ti
atom_frac 0.6660708160191569 0.6660536196496004 -0.0042359821907007 Ti
atom_frac 0.7312996324893961 0.9343969339746107 0.1666667914341892 O
atom_frac 0.9343962447082304 0.7312951801822587 0.1666667193780845 O
atom_frac 0.7675295513944723 0.7675280246074394 -0.0032786505676287 O
atom_frac 0.8982958469535461 0.8982910243533159 0.0039603938296965 O
atom_frac 0.8400457214206045 0.8400596932814077 0.4942725470958553 Ti
atom_frac 0.6660706276905221 0.6660538481580367 0.3375693200662385 Ti
atom_frac 0.7334709957332434 0.9362897623830302 0.4997935023615303 O
atom_frac 0.9362876178708281 0.7334673912135273 0.4997949189653522 O
atom_frac 0.7675295323231704 0.7675280437148175 0.3366120197737235 O
atom_frac 0.8982958063520436 0.8982910980324534 0.3293728976404184 O
atom_frac 0.8400455288525598 0.8400598781078328 0.8390607031524415 Ti
atom_frac 0.6827322417363354 0.6827479933817757 0.6666666821622762 Ti
atom_frac 0.7334710558560434 0.9362897216297699 0.8335397830548540 O
atom_frac 0.9362874835078591 0.7334672062578248 0.8335385433533962 O
atom_frac 0.7728936780420658 0.7728985880340289 0.6666666272549726 O
atom_frac 0.8998212330111832 0.8998182295965226 0.6666667106684813 O
