#=======================================================
# FHI-aims file: C:\Users\amit_\OneDrive\PhD Python\DFTdevelopment\FinalBayesianTesting\Defectvalidation\self-consistent projectors\HybridSP\SCF v3 for Archer2\Rutile\Pt\geometry.in
# Created using the Atomic Simulation Environment (ASE)
# Mon Jul 29 11:24:28 2024
#=======================================================
lattice_vector 13.7870999999999988 0.0000000000000000 0.0000000000000000 
lattice_vector 0.0000000000000000 13.7870999999999988 0.0000000000000000 
lattice_vector 0.0000000000000000 0.0000000000000000 8.8766999999999996 
atom 2.2801198127651534 2.2801204532521067 1.4907253231162796 Ti
atom 0.0000214961770305 0.0000226193455352 -0.0000001453873455 Ti
atom 0.8911584020654458 3.7003080836830304 1.4795958401094111 O
atom 3.7002835970140677 0.8911298444935178 1.4795960837233040 O
atom 1.4004544545585988 1.4004797558276740 0.0000000694352597 O
atom 3.1866439400794846 3.1866139102819631 -0.0000000213844010 O
atom 2.3199979287810342 2.3200094335201751 4.4383505390471019 Ti
atom 0.0000007689075987 0.0000006592995515 2.9923921910742615 Ti
atom 0.8948784885500175 3.6976208577866734 4.4383500294791460 O
atom 3.6975979533363517 0.8948497087906228 4.4383500451845386 O
atom 1.4024214931005288 1.4024450454549444 2.9548946804452627 O
atom 3.1829682824648864 3.1829403326042716 2.9567902663479941 O
atom 2.2801205492145162 2.2801211970472917 7.3859747628369448 Ti
atom 0.0000005106130413 0.0000006661278344 5.8843089312640497 Ti
atom 0.8911584134008614 3.7003081422875548 7.3971043125215914 O
atom 3.7002836907180838 0.8911298981591882 7.3971040489891440 O
atom 1.4024216232889875 1.4024451321061449 5.9218053568144731 O
atom 3.1829683081484421 3.1829403888070109 5.9199097041162991 O
atom 2.3419681689852578 6.8799293148985212 1.4961785064601580 Ti
atom 0.0021247349776912 4.6797457628903434 0.0000001043857748 Ti
atom 0.8892580183113151 8.3026066057603956 1.4835059738139538 O
atom 3.6973410618972729 5.4859364231657057 1.4712721030220206 O
atom 1.3984488445677923 6.0058455204705234 -0.0000000399819057 O
atom 3.1874964093695080 7.7905330329376108 0.0000000165896695 O
atom 2.2109854146896488 6.9233980347793143 4.4383500466275878 Ti
atom 0.0025297936423363 4.5535288543232548 2.9372882148717330 Ti
atom 0.8883959733873786 8.2978540550301236 4.4383500920216603 O
atom 3.7106537219529887 5.4815212345313249 4.4383498070927141 O
atom 1.4078088509919546 5.9993184221261311 2.9591776778757559 O
atom 3.1870665892551151 7.7843890160315894 2.9562066033770891 O
atom 2.3419686309301913 6.8799290363769900 7.3805216437962153 Ti
atom 0.0025297086720744 4.5535291547511862 5.9394121507817204 Ti
atom 0.8892581006990482 8.3026067333958125 7.3931941462059356 O
atom 3.6973413438578624 5.4859366318469531 7.4054274881882947 O
atom 1.4078088634770110 5.9993184258886076 5.9175224474248562 O
atom 3.1870668227931382 7.7843889253308198 5.9204933284249295 O
atom 2.2709280489489458 11.5161779835297651 1.4538638043080729 Ti
atom -0.0021174416220219 9.1073616963819859 0.0000001166406806 Ti
atom 0.8934516684990744 12.8936709865970336 1.4766297007484386 O
atom 3.7040975480684657 10.0829709668281478 1.4829989795889451 O
atom 1.4117461665940734 10.6003368458421825 0.0000000625683374 O
atom 3.1867815067799850 12.3753213717853576 0.0000000496797211 O
atom 2.3497267784998108 11.4373586504106743 4.4383503446194119 Ti
atom -0.0025161027897382 9.2335862439009428 2.9372889836246783 Ti
atom 0.8891801664932992 12.8979405308654602 4.4383501209628795 O
atom 3.7139909298389124 10.0730763686903977 4.4383499502918777 O
atom 1.4052718437867149 10.5961664937058373 2.9638412965771561 O
atom 3.1909549755665556 12.3817966462556068 2.9638413708876454 O
atom 2.2709289811208784 11.5161774291153325 7.4228364662318720 Ti
atom -0.0025159818640492 9.2335858490893212 5.9394114593008593 Ti
atom 0.8934516231308819 12.8936709931026670 7.4000703967740602 O
atom 3.7040976652361901 10.0829708554235697 7.3937007375252133 O
atom 1.4052718662887997 10.5961664791502752 5.9128588326575677 O
atom 3.1909549892410407 12.3817966244258439 5.9128587796976975 O
atom 6.8799421441291022 2.3419445798947383 1.4961960863376433 Ti
atom 4.6797481869771751 0.0021449465080437 0.0000001347077979 Ti
atom 5.4859645362099059 3.6973642490847629 1.4712710357725856 O
atom 8.3025794884390383 0.8892354713841376 1.4835036727569415 O
atom 6.0058199259597522 1.3984729686845130 -0.0000000267443691 O
atom 7.7905637219534283 3.1874730301321126 0.0000000113135781 O
atom 6.9233922069485034 2.2109969258752247 4.4383500161422758 Ti
atom 4.5535100907218071 0.0025119638800122 2.9372973174362524 Ti
atom 5.4815476304462329 3.7106764014645646 4.4383498237081511 O
atom 8.2978292166920671 0.8883710626167506 4.4383501096290336 O
atom 5.9992967551753686 1.4078362824795183 2.9591745872592785 O
atom 7.7844162675285551 3.1870434636186249 2.9562076501049268 O
atom 6.8799420461913101 2.3419451120293058 7.3805041917253158 Ti
atom 4.5535106804287295 0.0025121521234746 5.9394031300578058 Ti
atom 5.4859647284039736 3.6973644909031265 7.4054286112641989 O
atom 8.3025795591773814 0.8892355126045172 7.3931964279693112 O
atom 5.9992967350917423 1.4078362963225060 5.9175255310175681 O
atom 7.7844161822323006 3.1870436845115324 5.9204923118803983 O
atom 6.8935552813650443 6.8935561902615587 1.4409150209339208 Ti
atom 4.5497404103359846 4.5497089605514889 0.0000001157973624 Ti
atom 5.4844323051859609 8.3026873099988681 1.4769477939882663 O
atom 8.3026645511047032 5.4844090683916660 1.4769477765816375 O
atom 6.0021921471387500 6.0022171511041789 -0.0000006493400431 O
atom 7.7848987454814873 7.7848736962135678 -0.0000006540813161 O
atom 6.8935409676403285 6.8935422743652950 4.4383476815431324 Pt
atom 4.6050079934326824 4.6050102289551615 2.9963782209268968 Ti
atom 5.4899111231751094 8.2971961698911070 4.4383492239257398 O
atom 8.2971774186697189 5.4898924287104363 4.4383492490777909 O
atom 5.9836423632576707 5.9836647883879390 2.9139377657918857 O
atom 7.8034479105922090 7.8034247562939782 2.9139427739655952 O
atom 6.8935551774044130 6.8935559119430128 7.4357851187186972 Ti
atom 4.6050094802885564 4.6050116607632985 5.8803213081022054 Ti
atom 5.4844325346563032 8.3026870997475122 7.3997517772370340 O
atom 8.3026643237744491 5.4844092917785519 7.3997517884203869 O
atom 5.9836429188527847 5.9836653658498129 5.9627597226282809 O
atom 7.8034472968096829 7.8034241793723389 5.9627547263048166 O
atom 6.9071653566612792 11.4451619788825578 1.4961978734128500 Ti
atom 4.5613038177975014 9.2258441711140371 0.0000009393691342 Ti
atom 5.4845173269775502 12.8978604525001526 1.4835044706474281 O
atom 8.3011306089560524 10.0897298847187056 1.4712724032093665 O
atom 5.9965305611822446 10.5996232457003163 0.0000000478547015 O
atom 7.7812774422131765 12.3886208207465440 -0.0000000172243003 O
atom 6.8637138200476064 11.5761074868504110 4.4383500692288003 Ti
atom 4.6110164193345140 9.1760817293217478 2.9303563048508940 Ti
atom 5.4892671715321342 12.8987248786166813 4.4383500894321957 O
atom 8.3055481614835998 10.0764188046636924 4.4383498138520814 O
atom 6.0026798386547551 10.6000498059470196 2.9562076710601413 O
atom 7.7877975166044466 12.3792584653671565 2.9591736867901379 O
atom 6.9071655755932850 11.4451615489168166 7.3805022969582499 Ti
atom 4.6110168850682527 9.1760812270487246 5.9463449320247728 Ti
atom 5.4845172247727385 12.8978603863663039 7.3931956366876337 O
atom 8.3011303984903737 10.0897296120169493 7.4054272612976444 O
atom 6.0026799261309076 10.6000495748123615 5.9204922815298735 O
atom 7.7877975060859903 12.3792584428499204 5.9175264585818184 O
atom 11.5161735260227633 2.2709250634695386 1.4538638051029866 Ti
atom 9.1073592452885404 -0.0021377912026342 0.0000001069914250 Ti
atom 10.0829985454701969 3.7041249652005246 1.4829989041652771 O
atom 12.8936455655682387 0.8934263072409605 1.4766296155811705 O
atom 10.6003136323451024 1.4117739039323007 0.0000000234297470 O
atom 12.3753492392972380 3.1867581224945689 0.0000000493720568 O
atom 11.4373892472840968 2.3497571821036640 4.4383502747189407 Ti
atom 9.2336049023038456 -0.0024983202655042 2.9372978468127862 Ti
atom 10.0731067900153626 3.7140208173610212 4.4383499664270740 O
atom 12.8979178274538260 0.8891575457415759 4.4383500915473748 O
atom 10.5961416248497553 1.4052985595314811 2.9638415411304688 O
atom 12.3818234900860702 3.1909301362226228 2.9638409537292358 O
atom 11.5161726133254021 2.2709260207017539 7.4228365906406308 Ti
atom 9.2336045987192215 -0.0024982199676953 5.9394026209305411 Ti
atom 10.0829984566048303 3.7041250940207311 7.3937008055520845 O
atom 12.8936456280877660 0.8934262829089369 7.4000704578598144 O
atom 10.5961416056308977 1.4052985914997491 5.9128586220283816 O
atom 12.3818234875536781 3.1909301608719502 5.9128591798860164 O
atom 11.4451382934690873 6.9071785362514255 1.4961802854164741 Ti
atom 9.2258098536584985 4.5612720373313795 0.0000010213728647 Ti
atom 10.0897533313682661 8.3011586936943527 1.4712733860558229 O
atom 12.8978381309405670 5.4844901284424568 1.4835066887651192 O
atom 10.5995999449269185 5.9965614430771685 0.0000000235162986 O
atom 12.3886452333517170 7.7812516259515290 -0.0000000394523627 O
atom 11.5761191673490451 6.8637077086405904 4.4383500726554406 Ti
atom 9.1760943537852491 4.6110286495294623 2.9303562416255424 Ti
atom 10.0764420077145882 8.3055744724302247 4.4383498437702853 O
atom 12.8987001057112707 5.4892422626794062 4.4383500856133695 O
atom 10.6000270464880462 6.0027067661226328 2.9562064817201179 O
atom 12.3792860707122685 7.7877759074028701 2.9591767086070191 O
atom 11.4451379001733482 6.9071786664218360 7.3805198941004750 Ti
atom 9.1760938629377211 4.6110290551860906 5.9463449412041722 Ti
atom 10.0897530416656576 8.3011584930089199 7.4054262657525172 O
atom 12.8978380326779281 5.4844900158203540 7.3931933920590565 O
atom 10.6000267898262521 6.0027068737643283 5.9204934883680727 O
atom 12.3792860742924073 7.7877758732970941 5.9175234162788479 O
atom 11.5070057570962625 11.5070050441868883 1.4907238866668344 Ti
atom 9.2373911346470265 9.2374231050241313 0.0000001308024986 Ti
atom 10.0868144468998668 12.8959676814804407 1.4795962227909818 O
atom 12.8959392180724581 10.0867898203236184 1.4795958747857005 O
atom 10.6004525393015196 10.6004827062227420 -0.0000000424837186 O
atom 12.3866422472584947 12.3866169011814886 0.0000000667868846 O
atom 11.4670757590650290 11.4670645172219192 4.4383505636157912 Ti
atom 9.1820922196667567 9.1820896122132467 2.9963773016600488 Ti
atom 10.0894964743163928 12.8922449532611392 4.4383500439669517 O
atom 12.8922163348171797 10.0894733980191411 4.4383500465218990 O
atom 10.6041258577787616 10.6041536615904626 2.9567899310994217 O
atom 12.3846747730671680 12.3846511493866949 2.9548957001208334 O
atom 11.5070047928606769 11.5070039632904368 7.3859762340601760 Ti
atom 9.1820905110249313 9.1820878378244828 5.8803223493017756 Ti
atom 10.0868143868097757 12.8959676670575920 7.3971039378103036 O
atom 12.8959391797093215 10.0867896992795085 7.3971042616493268 O
atom 10.6041258193145556 10.6041536332968835 5.9199100903544073 O
atom 12.3846746744196583 12.3846510465728343 5.9218043633336572 O
