#=======================================================
# FHI-aims file: ./geometry.in
# Created using the Atomic Simulation Environment (ASE)
# Tue Jul 16 16:41:57 2024
#=======================================================
lattice_vector 11.3550000000000004 0.0000000000000000 0.0000000000000000 
lattice_vector 0.0000000000000000 11.3550000000000004 0.0000000000000000 
lattice_vector 0.0000000000000000 0.0000000000000000 28.5398999999999958 
atom_frac 0.1666553176368736 0.2497814644062330 0.2911498172673009 Ti
atom_frac -0.0001347631617066 0.2499868449549904 0.2080444878114164 Ti
atom_frac 0.1666441701299569 0.0833333189998137 0.0416676790195714 Ti
atom_frac -0.0000152001456438 0.0833332646413303 0.1248649832743010 Ti
atom_frac 0.1666405181853310 0.2499899511862054 0.0274172042678340 O
atom_frac -0.0000788098835106 0.2498573947815658 0.2771684948782079 O
atom_frac 0.1666749321138418 0.0833332419088435 0.3055885125700871 O
atom_frac -0.0000083855937614 0.0833332441907941 0.0559133502498738 O
atom_frac -0.0000620584419158 0.0833332679782360 0.1939416452138692 O
atom_frac 0.1666692441474037 0.0833332460117551 0.1106907688491342 O
atom_frac -0.0000283894910572 0.2500001006507637 0.1391530355901757 O
atom_frac 0.1666682685758125 0.2499464974308742 0.2223865742804066 O
atom_frac 0.1664199510498316 0.2497247566708181 0.6250591992836413 Ti
atom_frac -0.0000926425879375 0.2499076388482162 0.5416667778993031 Ti
atom_frac 0.1651730270211785 0.0833332493006342 0.3744658751629631 Ti
atom_frac -0.0002731284955797 0.0833332185897380 0.4582617303592028 Ti
atom_frac 0.1656143515582010 0.2499253036268883 0.3604017213474431 O
atom_frac 0.0001347511439449 0.2499988844151377 0.6107168047784085 O
atom_frac 0.1669283553405346 0.0833333581573510 0.6393445410835963 O
atom_frac -0.0003951981642320 0.0833332232460142 0.3891131377219953 O
atom_frac 0.0002903320886986 0.0833333707810932 0.5273453887487775 O
atom_frac 0.1663731988139758 0.0833333640805337 0.4436120212726778 O
atom_frac -0.0000013387146739 0.2501349483470152 0.4726161587710468 O
atom_frac 0.1669501261784879 0.2503196933929700 0.5558969109456655 O
atom_frac 0.1666629694493403 0.2499879858171061 0.9584586350405444 Ti
atom_frac -0.0000130637400494 0.2498656022585100 0.8752891611858575 Ti
atom_frac 0.1667035142469699 0.0833337890536899 0.7088401848999841 Ti
atom_frac -0.0001097170028327 0.0833331326577356 0.7920162847278722 Ti
atom_frac 0.1670567675164588 0.2496211136817341 0.6942628639043298 O
atom_frac 0.0000001804272269 0.2499717385627614 0.9441800991245681 O
atom_frac 0.1666328686665038 0.0833333371851154 0.9726344776729228 O
atom_frac 0.0000741479344382 0.0833330816047022 0.7228164834053594 O
atom_frac 0.0000255188673375 0.0833333718313115 0.8609312334995224 O
atom_frac 0.1666391819175583 0.0833332048293825 0.7775817524923008 O
atom_frac -0.0001423502112845 0.2499212426890224 0.8061645313850710 O
atom_frac 0.1666762355786119 0.2499914653256181 0.8893804672206735 O
atom_frac 0.1667243469067911 0.5833331731264609 0.2911073970439784 Ti
atom_frac -0.0001630955095067 0.5833332681688064 0.2080506593673380 Ti
atom_frac 0.1666380618550516 0.4166379667437429 0.0416668536352141 Ti
atom_frac -0.0000118753428059 0.4166628987656880 0.1248744202538477 Ti
atom_frac 0.1666356338575808 0.5833332898128204 0.0274268404076540 O
atom_frac -0.0000631722820935 0.5833332225803548 0.2771911430833541 O
atom_frac 0.1661417900335540 0.4166681901360484 0.3055815876627873 O
atom_frac -0.0000099276225403 0.4166403391659826 0.0559164579152739 O
atom_frac -0.0000089236969324 0.4166762619732960 0.1939532142072570 O
atom_frac 0.1666680749186647 0.4166371858646654 0.1106927970843221 O
atom_frac -0.0000287674721041 0.5833332790078547 0.1391624785264464 O
atom_frac 0.1666768158918920 0.5833332832524113 0.2223870347260018 O
atom_frac 0.1633133613940622 0.5833334978799053 0.6276816160618027 Ti
atom_frac -0.0029631756953250 0.5833333207721436 0.5416152089873156 Ti
atom_frac 0.1646661225624355 0.4166783206840128 0.3741896636950475 Ti
atom_frac -0.0002751270706177 0.4164201977356289 0.4582737832900989 Ti
atom_frac 0.1667687678035497 0.5833332524446867 0.3604295833179262 O
atom_frac -0.0006030001502809 0.5833334796901011 0.6112957691573550 O
atom_frac 0.1665696596431175 0.4163770861048516 0.6398014044620166 O
atom_frac -0.0003786620749869 0.4170566166609619 0.3890707444786294 O
atom_frac 0.0003194356681440 0.4169503673206412 0.5274366596094826 O
atom_frac 0.1663771701486688 0.4165702403019984 0.4435316156156555 O
atom_frac 0.0001551411853862 0.5833333223782192 0.4729178138593634 O
atom_frac 0.1661513703860857 0.5833332680595792 0.5569294613541917 O
atom_frac 0.1666304959646837 0.5833333163543700 0.9584869276556145 Ti
atom_frac 0.0000093895090964 0.5833337875659518 0.8753023854679560 Ti
atom_frac 0.1666783875392847 0.4146662991980216 0.7091438973327361 Ti
atom_frac -0.0002183011035861 0.4166551906790318 0.7921831778978785 Ti
atom_frac 0.1651921731626446 0.5833333138059028 0.6948866387550685 O
atom_frac -0.0000041101805037 0.5833333873021890 0.9441674221153405 O
atom_frac 0.1666374320913376 0.4166680910241193 0.9726403609225056 O
atom_frac -0.0000745682130778 0.4156135475554505 0.7229319227158783 O
atom_frac -0.0000534478769608 0.4166683160674367 0.8609470865321721 O
atom_frac 0.1666684055946342 0.4161424700051825 0.7777513887840247 O
atom_frac 0.0002066156012480 0.5833333973181279 0.8061121938356076 O
atom_frac 0.1666767302210076 0.5833334683284778 0.8893885121144820 O
atom_frac 0.1666553122608898 0.9168849060602084 0.2911498062288218 Ti
atom_frac -0.0001347669436939 0.9166797716159389 0.2080444829734979 Ti
atom_frac 0.1666380458991329 0.7500285399464779 0.0416668502096354 Ti
atom_frac -0.0000118786820410 0.7500037198595149 0.1248744249686589 Ti
atom_frac 0.1666404790232429 0.9166766405941492 0.0274171740764295 O
atom_frac -0.0000788171241875 0.9168090012920571 0.2771684847116658 O
atom_frac 0.1661417744601932 0.7499982883214719 0.3055815870451716 O
atom_frac -0.0000099047372315 0.7500264213350625 0.0559164382556134 O
atom_frac -0.0000089087162101 0.7499903384201105 0.1939531806831646 O
atom_frac 0.1666680839126320 0.7500294105753746 0.1106927509478272 O
atom_frac -0.0000283706809628 0.9166665029693097 0.1391530321181885 O
atom_frac 0.1666682718027669 0.9167200763161751 0.2223865688740584 O
atom_frac 0.1664199525526563 0.9169421621064909 0.6250591223495583 Ti
atom_frac -0.0000926150341391 0.9167590313461502 0.5416667234643998 Ti
atom_frac 0.1646661419993204 0.7499882310570402 0.3741896619783397 Ti
atom_frac -0.0002751254419671 0.7502461475212813 0.4582737780196790 Ti
atom_frac 0.1656143552010922 0.9167411979211525 0.3604017215384372 O
atom_frac 0.0001347524844802 0.9166681579751842 0.6107167755102005 O
atom_frac 0.1665696755522019 0.7502897807388950 0.6398014219266185 O
atom_frac -0.0003786720382394 0.7496097634565982 0.3890707671141919 O
atom_frac 0.0003194637981222 0.7497162613087147 0.5274366710178550 O
atom_frac 0.1663771922302521 0.7500966569011545 0.4435316182504091 O
atom_frac -0.0000012233077235 0.9165316939963929 0.4726161655125010 O
atom_frac 0.1669501272961723 0.9163470558776318 0.5558968671443855 O
atom_frac 0.1666628656571267 0.9166785268205460 0.9584586410823097 Ti
atom_frac -0.0000131248596349 0.9168019162352179 0.8752891898191301 Ti
atom_frac 0.1666783321265938 0.7520012628307905 0.7091439215855531 Ti
atom_frac -0.0002183756253743 0.7500110116769676 0.7921831676797448 Ti
atom_frac 0.1670567146843891 0.9170455396963718 0.6942628654758652 O
atom_frac 0.0000001671143043 0.9166951263037997 0.9441800740288726 O
atom_frac 0.1666373729312825 0.7499984844183868 0.9726403001770629 O
atom_frac -0.0000745655315902 0.7510515517239396 0.7229319071855435 O
atom_frac -0.0000535472472968 0.7499985529372482 0.8609470825823238 O
atom_frac 0.1666682941313680 0.7505247734051386 0.7777514187177921 O
atom_frac -0.0001428995231987 0.9167454878092099 0.8061645306141348 O
atom_frac 0.1666762179876190 0.9166756355360016 0.8893804634784281 O
atom_frac 0.5000113382193235 0.2497814655144976 0.2911498060871228 Ti
atom_frac 0.3333333410051473 0.2500093683202111 0.2080312958811103 Ti
atom_frac 0.5000224844368552 0.0833332394688715 0.0416676776569232 Ti
atom_frac 0.3333333249840459 0.0833332826211091 0.1248575814050390 Ti
atom_frac 0.5000261415095578 0.2499899429520476 0.0274171941351263 O
atom_frac 0.3333333488315619 0.2502066810179832 0.2772208807688220 O
atom_frac 0.4999917083201590 0.0833332491107555 0.3055885278848395 O
atom_frac 0.3333333276420303 0.0833332492228080 0.0559127357403233 O
atom_frac 0.3333333260403981 0.0833332799672573 0.1939629306575042 O
atom_frac 0.4999974088578573 0.0833332475055743 0.1106907707881815 O
atom_frac 0.3333333433556717 0.2499958476794190 0.1391656406676343 O
atom_frac 0.4999984212471081 0.2499464865275240 0.2223865675830687 O
atom_frac 0.5002464426246576 0.2497247654327993 0.6250591862630347 Ti
atom_frac 0.3333332168385488 0.2470365618988710 0.5417185715544613 Ti
atom_frac 0.5014939767579383 0.0833332596258263 0.3744658651580717 Ti
atom_frac 0.3333335333055757 0.0833332478442921 0.4565291693322308 Ti
atom_frac 0.5010526827436041 0.2499253060342777 0.3604017220067582 O
atom_frac 0.3333332094662660 0.2501553544295321 0.6104152125043928 O
atom_frac 0.4997380809708734 0.0833333569384436 0.6393445236583163 O
atom_frac 0.3333334698823929 0.0833333042168883 0.3887985842951776 O
atom_frac 0.3333332310782017 0.0833333607552490 0.5271812476977118 O
atom_frac 0.5002937121752732 0.0833333718608574 0.4436120114226483 O
atom_frac 0.3333334590776025 0.2493968328976322 0.4720371995320555 O
atom_frac 0.4997162958042059 0.2503197876290232 0.5558969030523329 O
atom_frac 0.5000036650363298 0.2499879997310978 0.9584586351334340 Ti
atom_frac 0.3333333436241111 0.2498368430569832 0.8752830057761193 Ti
atom_frac 0.4999631176525230 0.0833337834475594 0.7088401753014522 Ti
atom_frac 0.3333333196916973 0.0833336709896816 0.7920316202703178 Ti
atom_frac 0.4996099033545253 0.2496211065400076 0.6942628601144498 O
atom_frac 0.3333333621205427 0.2499712399988710 0.9441704602398746 O
atom_frac 0.5000337850368248 0.0833333472491469 0.9726344756562678 O
atom_frac 0.3333333218508347 0.0833329850417266 0.7228917345898233 O
atom_frac 0.3333333155922287 0.0833333132719818 0.8609264552236598 O
atom_frac 0.5000274449265327 0.0833331822270622 0.7775817514132468 O
atom_frac 0.3333332942390385 0.2499369051304032 0.8061419060817491 O
atom_frac 0.4999903962642294 0.2499914289896735 0.8893804481411567 O
atom_frac 0.4999423316667980 0.5833331649083647 0.2911074085210807 Ti
atom_frac 0.3333333780406124 0.5833332694894477 0.2079817759798155 Ti
atom_frac 0.5000286293236923 0.4166380053517984 0.0416668285429931 Ti
atom_frac 0.3333333096906742 0.4166305774534467 0.1248461166205126 Ti
atom_frac 0.5000310177313152 0.5833333054942142 0.0274268387210562 O
atom_frac 0.3333333730071295 0.5833332165675671 0.2772005559935935 O
atom_frac 0.5005249343395740 0.4166681783947310 0.3055815760154468 O
atom_frac 0.3333333342803599 0.4166354761042022 0.0559069137990718 O
atom_frac 0.3333333738154929 0.4166767721790637 0.1939451388560886 O
atom_frac 0.4999985723266035 0.4166371851254533 0.1106927649277352 O
atom_frac 0.3333333227973008 0.5833332907151624 0.1391458699899132 O
atom_frac 0.4999899036884664 0.5833332853574378 0.2223870189773064 O
atom_frac 0.5033530366193744 0.5833334979182653 0.6276816272948846 Ti
atom_frac 0.3333333544695978 0.5833332550135581 0.5416666474135684 Nb
atom_frac 0.5020010002634324 0.4166783067260633 0.3741896749817539 Ti
atom_frac 0.3333334696921774 0.4133129712742187 0.4556513794489847 Ti
atom_frac 0.4998982863934460 0.5833332498696898 0.3604295884528586 O
atom_frac 0.3333332495591370 0.5833333351155076 0.6121281115438418 O
atom_frac 0.5000967588927494 0.4163770876979053 0.6398014044280582 O
atom_frac 0.3333334438676513 0.4151917547001018 0.3884468752098728 O
atom_frac 0.3333331108793190 0.4161512846583969 0.5264039638156974 O
atom_frac 0.5002897014951199 0.4165702036720774 0.4435315959684261 O
atom_frac 0.3333334220862892 0.5833333149343909 0.4712049809873604 O
atom_frac 0.5005151107040055 0.5833332673944577 0.5569294316100483 O
atom_frac 0.5000361522573827 0.5833332878206322 0.9584869251404695 Ti
atom_frac 0.3333333228692655 0.5833333235974648 0.8753519859760016 Ti
atom_frac 0.4999882355857846 0.4146662765781465 0.7091439011380641 Ti
atom_frac 0.3333332942287868 0.4167247780886828 0.7922256658734765 Ti
atom_frac 0.5014744309345720 0.5833333127998996 0.6948866306061837 O
atom_frac 0.3333333231804615 0.5833332296577842 0.9441871279944278 O
atom_frac 0.5000292174158297 0.4166680859639090 0.9726403256625730 O
atom_frac 0.3333333031597455 0.4167676467963533 0.7229039835182072 O
atom_frac 0.3333333183568888 0.4166768763206631 0.8609465867873477 O
atom_frac 0.4999981979080149 0.4161424808895503 0.7777513851346295 O
atom_frac 0.3333333033936077 0.5833334187732572 0.8061325142905342 O
atom_frac 0.4999899131077780 0.5833335358834716 0.8893885104191220 O
atom_frac 0.5000113444708959 0.9168849139039141 0.2911498180332410 Ti
atom_frac 0.3333333547398654 0.9166572328241501 0.2080312973528718 Ti
atom_frac 0.5000285682238069 0.7500285793519809 0.0416668719176003 Ti
atom_frac 0.3333333381672826 0.7500360060551923 0.1248461374083778 Ti
atom_frac 0.5000261671475118 0.9166766332330023 0.0274171785587004 O
atom_frac 0.3333333651951929 0.9164597250269977 0.2772208824574834 O
atom_frac 0.5005249268869827 0.7499982928857827 0.3055815778558167 O
atom_frac 0.3333333202426726 0.7500311032840373 0.0559069080655638 O
atom_frac 0.3333333063746663 0.7499897915633387 0.1939451163718645 O
atom_frac 0.4999985730402610 0.7500294101585816 0.1106927860367935 O
atom_frac 0.3333332996441411 0.9166707070702180 0.1391656429100870 O
atom_frac 0.4999984286156388 0.9167200852980151 0.2223865601320279 O
atom_frac 0.5002464420050241 0.9169421534110564 0.6250591077394305 Ti
atom_frac 0.3333332168749139 0.9196300760438937 0.5417184905420523 Ti
atom_frac 0.5020009767969201 0.7499882342835861 0.3741896695482286 Ti
atom_frac 0.3333334691424856 0.7533533315198938 0.4556513968106766 Ti
atom_frac 0.5010526805481940 0.9167411980553919 0.3604017134427835 O
atom_frac 0.3333332103863238 0.9165115004847887 0.6104151380377686 O
atom_frac 0.5000967505299313 0.7502897807500288 0.6398014190624269 O
atom_frac 0.3333334445804227 0.7514747424789235 0.3884468681209785 O
atom_frac 0.3333331118580870 0.7505152943751636 0.5264039826855649 O
atom_frac 0.5002896773805491 0.7500966858064292 0.4435315954155095 O
atom_frac 0.3333334566677426 0.9172698213769670 0.4720372073337956 O
atom_frac 0.4997162940040329 0.9163469617963104 0.5558968587442608 O
atom_frac 0.5000037934336005 0.9166785438013454 0.9584586345719204 Ti
atom_frac 0.3333333005053797 0.9168294956252412 0.8752830575818360 Ti
atom_frac 0.4999883003225290 0.7520012900409676 0.7091439218626107 Ti
atom_frac 0.3333333021469264 0.7499425128178252 0.7922256292865406 Ti
atom_frac 0.4996099662140931 0.9170455485043010 0.6942628589742277 O
atom_frac 0.3333332835047105 0.9166952635666148 0.9441705659945818 O
atom_frac 0.5000292769561959 0.7499984797604040 0.9726403319633563 O
atom_frac 0.3333333060306042 0.7498977935198204 0.7229040658362813 O
atom_frac 0.3333333163893955 0.7499898211162602 0.8609466643408821 O
atom_frac 0.4999983160713266 0.7505247852308122 0.7777514180696805 O
atom_frac 0.3333332994241522 0.9167297563361161 0.8061419510041772 O
atom_frac 0.4999904384201925 0.9166756039761649 0.8893804761788084 O
atom_frac 0.8333333383844228 0.2498901519212415 0.2913167307527154 Ti
atom_frac 0.6668014564417533 0.2499868284775984 0.2080444874702649 Ti
atom_frac 0.8333333216611730 0.0833334630926448 0.0416668520440233 Ti
atom_frac 0.6666818492985314 0.0833332886865000 0.1248649855222039 Ti
atom_frac 0.8333333169434906 0.2499916263850566 0.0274203762440717 O
atom_frac 0.6667455155588384 0.2498573839513077 0.2771684799800586 O
atom_frac 0.8333333455622177 0.0833332189391248 0.3057822192959526 O
atom_frac 0.6666750372857599 0.0833332312903393 0.0559133464920510 O
atom_frac 0.6667287601732474 0.0833332926431643 0.1939416423155459 O
atom_frac 0.8333333288377355 0.0833332623813357 0.1106910527481662 O
atom_frac 0.6666950330854056 0.2500000632656187 0.1391530190093770 O
atom_frac 0.8333333567066372 0.2500253543893654 0.2224023887236597 O
atom_frac 0.8333332119928014 0.2497269255774406 0.6250712663815564 Ti
atom_frac 0.6667591152773141 0.2499076394232991 0.5416667863085933 Ti
atom_frac 0.8333335038193787 0.0833332474325536 0.3746160383262509 Ti
atom_frac 0.6669401058323037 0.0833332192681573 0.4582617307660691 Ti
atom_frac 0.8333335081464213 0.2500740690904009 0.3605172234496286 O
atom_frac 0.6665316785294194 0.2499988998861664 0.6107167997694500 O
atom_frac 0.8333331711963635 0.0833334684079061 0.6393272512619230 O
atom_frac 0.6670621394313909 0.0833332330140120 0.3891131363965958 O
atom_frac 0.6663762737399453 0.0833333710341571 0.5273454067113159 O
atom_frac 0.8333334344169315 0.0833332507955458 0.4440057402947307 O
atom_frac 0.6666680400384383 0.2501349399456472 0.4726161683748005 O
atom_frac 0.8333332293357052 0.2502912270504777 0.5559882127366972 O
atom_frac 0.8333333398495730 0.2499848681943566 0.9584680503443369 Ti
atom_frac 0.6666796989507723 0.2498656079848068 0.8752891596383843 Ti
atom_frac 0.8333333094686308 0.0833339093753716 0.7087176787964711 Ti
atom_frac 0.6667763362874880 0.0833331346082223 0.7920162859154467 Ti
atom_frac 0.8333333342858606 0.2496047475194998 0.6942204346678696 O
atom_frac 0.6666664311001536 0.2499717189893674 0.9441800857878779 O
atom_frac 0.8333333231032648 0.0833334631342018 0.9726420261183625 O
atom_frac 0.6665924753215794 0.0833330838406536 0.7228164889203018 O
atom_frac 0.6666411347805077 0.0833333833610766 0.8609312372774511 O
atom_frac 0.8333333129076277 0.0833334330492903 0.7775507941050613 O
atom_frac 0.6668089864514364 0.2499212492961511 0.8061645237730195 O
atom_frac 0.8333333390204022 0.2499382051184238 0.8893920788268082 O
atom_frac 0.8333333471329585 0.5833331821115878 0.2913015160901638 Ti
atom_frac 0.6668297942295035 0.5833333108030576 0.2080506635308670 Ti
atom_frac 0.8333332836649019 0.4166441936322993 0.0416660351539599 Ti
atom_frac 0.6666785414411005 0.4166628901993710 0.1248744243485756 Ti
atom_frac 0.8333333245670027 0.5833334199894392 0.0274210239457107 O
atom_frac 0.6667298940889085 0.5833332183696154 0.2771911305263807 O
atom_frac 0.8333333405066676 0.4166390236828638 0.3057513244649564 O
atom_frac 0.6666765736526543 0.4166403457959154 0.0559164490396106 O
atom_frac 0.6666755955824921 0.4166762516859127 0.1939531977341255 O
atom_frac 0.8333333371954180 0.4166326237966916 0.1106985861060761 O
atom_frac 0.6666954451363408 0.5833333579335575 0.1391624725181702 O
atom_frac 0.8333333633548624 0.5833332784290044 0.2224072589774297 O
atom_frac 0.8333332129954768 0.5833335625014627 0.6268037369105446 Ti
atom_frac 0.6696299642233479 0.5833333213574189 0.5416152139196756 Ti
atom_frac 0.8333335466795322 0.4167034615866487 0.3744935014395314 Ti
atom_frac 0.6669420354676302 0.4164202017940527 0.4582737919429386 Ti
atom_frac 0.8333334998023424 0.5833332427921435 0.3604418718038314 O
atom_frac 0.6672694698335803 0.5833334821758461 0.6112957516646776 O
atom_frac 0.8333332051726964 0.4163732554718654 0.6397209795453732 O
atom_frac 0.6670456193820934 0.4170566093708870 0.3890707290467857 O
atom_frac 0.6663469471478928 0.4169503836072251 0.5274366555911367 O
atom_frac 0.8333334169291124 0.4169286388844682 0.4439884280582248 O
atom_frac 0.6665114529078329 0.5833333215941134 0.4729178050023508 O
atom_frac 0.8333332738470052 0.5833334784472649 0.5561526148168826 O
atom_frac 0.8333333236863688 0.5833334262097644 0.9584754603823052 Ti
atom_frac 0.6666572631092792 0.5833337749317417 0.8753023839637325 Ti
atom_frac 0.8333333168091001 0.4151734768961015 0.7088677588562377 Ti
atom_frac 0.6668849158038503 0.4166551896636920 0.7921831660369235 Ti
atom_frac 0.8333332932052449 0.5833332923311620 0.6945350315699790 O
atom_frac 0.6666707576596110 0.5833334307925182 0.9441674211013845 O
atom_frac 0.8333333259894143 0.4166693730444210 0.9726423333517924 O
atom_frac 0.6667411718503405 0.4156135456314273 0.7229319249728408 O
atom_frac 0.6667200881068446 0.4166683107482271 0.8609470863599245 O
atom_frac 0.8333333045902165 0.4166758393069727 0.7777445324584200 O
atom_frac 0.6664600040475757 0.5833333815504222 0.8061121927918886 O
atom_frac 0.8333333237115313 0.5833332997649741 0.8893707846985056 O
atom_frac 0.8333333367732265 0.9167762338040294 0.2913167192282345 Ti
atom_frac 0.6668014476168926 0.9166797454964214 0.2080444883003701 Ti
atom_frac 0.8333333636016098 0.7500225439709365 0.0416660450252716 Ti
atom_frac 0.6666785158578665 0.7500037047284119 0.1248744217967377 Ti
atom_frac 0.8333333306679621 0.9166751552065033 0.0274203037923323 O
atom_frac 0.6667455063550208 0.9168090162818372 0.2771684861002113 O
atom_frac 0.8333333638212616 0.7500274385922637 0.3057513461859781 O
atom_frac 0.6666765657003384 0.7500264276078608 0.0559164432999988 O
atom_frac 0.6666756488126431 0.7499903241875296 0.1939531951343326 O
atom_frac 0.8333333281275487 0.7500340870796888 0.1106985380369509 O
atom_frac 0.6666950583634297 0.9166664615645557 0.1391530407961128 O
atom_frac 0.8333333463270343 0.9166412380597382 0.2224023936877161 O
atom_frac 0.8333332105842859 0.9169402174850771 0.6250712380779929 Ti
atom_frac 0.6667590879572400 0.9167590312541644 0.5416667328481872 Ti
atom_frac 0.8333335521494744 0.7499631222287243 0.3744935004855367 Ti
atom_frac 0.6669420339461708 0.7502461423062965 0.4582737844187972 Ti
atom_frac 0.8333335059274956 0.9165923841241687 0.3605172218257224 O
atom_frac 0.6665316756840841 0.9166681399353359 0.6107167698760314 O
atom_frac 0.8333331974941556 0.7502937175833880 0.6397210112602231 O
atom_frac 0.6670456278040950 0.7496097610672769 0.3890707484085097 O
atom_frac 0.6663469159319272 0.7497162447313176 0.5274366660324147 O
atom_frac 0.8333334182662365 0.7497381673238175 0.4439884539209825 O
atom_frac 0.6666679252869189 0.9165317030737798 0.4726161743957197 O
atom_frac 0.8333332293415480 0.9163755315088740 0.5559881459075104 O
atom_frac 0.8333333146950247 0.9166819082658214 0.9584680941909265 Ti
atom_frac 0.6666798037044741 0.9168019227911166 0.8752891939291417 Ti
atom_frac 0.8333333066534627 0.7514941659464379 0.7088677640284130 Ti
atom_frac 0.6668849816611681 0.7500110117574306 0.7921831785655054 Ti
atom_frac 0.8333333242637676 0.9170620852104969 0.6942204664822134 O
atom_frac 0.6666665228119434 0.9166951021161063 0.9441800861731680 O
atom_frac 0.8333333255650544 0.7499974119838655 0.9726422487849418 O
atom_frac 0.6667411661499850 0.7510515522044517 0.7229319011055563 O
atom_frac 0.6667201892365705 0.7499985467432131 0.8609470808730760 O
atom_frac 0.8333332977349027 0.7499916521193234 0.7777445052797267 O
atom_frac 0.6668095303731880 0.9167454973196864 0.8061645399864306 O
atom_frac 0.8333333142686904 0.9167289978129101 0.8893921284421874 O
