#=======================================================
# FHI-aims file: ./geometry.in
# Created using the Atomic Simulation Environment (ASE)
# Wed Jul 17 19:17:11 2024
#=======================================================
lattice_vector 13.7870999999999988 0.0000000000000000 0.0000000000000000 
lattice_vector 0.0000000000000000 13.7870999999999988 0.0000000000000000 
lattice_vector 0.0000000000000000 0.0000000000000000 8.8766999999999996 
atom_frac 0.1653806683613779 0.1653807148169018 0.1679368823004359 Ti
atom_frac 0.0000015591514554 0.0000016406166297 -0.0000000163785354 Ti
atom_frac 0.0646371174551172 0.2683891524456217 0.1666830962079840 O
atom_frac 0.2683873763890933 0.0646350461296080 0.1666831236521798 O
atom_frac 0.1015771594141334 0.1015789945548864 0.0000000078221929 O
atom_frac 0.2311322859832369 0.2311301078748949 -0.0000000024090485 O
atom_frac 0.1682730906993519 0.1682739251561369 0.5000000607260696 Ti
atom_frac 0.0000000557700748 0.0000000478200312 0.3371063786175337 Ti
atom_frac 0.0649069411660188 0.2681942437341192 0.5000000033209578 O
atom_frac 0.2681925824383918 0.0649048537249039 0.5000000050902406 O
atom_frac 0.1017198318065822 0.1017215400958102 0.3328821161518653 O
atom_frac 0.2308656847679996 0.2308636575207456 0.3330956623912033 O
atom_frac 0.1653807217772060 0.1653807687655339 0.8320631273825797 Ti
atom_frac 0.0000000370355652 0.0000000483152972 0.6628937478189023 Ti
atom_frac 0.0646371182772927 0.2683891566962998 0.8333169209865819 O
atom_frac 0.2683873831855926 0.0646350500220633 0.8333168912984718 O
atom_frac 0.1017198412493554 0.1017215463807577 0.6671178880456108 O
atom_frac 0.2308656866308682 0.2308636615972185 0.6669043342814671 O
atom_frac 0.1698666267007027 0.4990120703337556 0.1685512078204916 Ti
atom_frac 0.0001541103624179 0.3394293044142963 0.0000000117595249 Ti
atom_frac 0.0644992796390332 0.6022010869407197 0.1671235902772375 O
atom_frac 0.2681739496991589 0.3979035782119305 0.1657453899559544 O
atom_frac 0.1014316893739650 0.4356134009668838 -0.0000000045041407 O
atom_frac 0.2311941169186782 0.5650595870732505 0.0000000018689005 O
atom_frac 0.1603662419718178 0.5021649248050217 0.5000000052528065 Ti
atom_frac 0.0001834899030497 0.3302745939554551 0.3308986689728990 Ti
atom_frac 0.0644367541678365 0.6018563769777636 0.5000000103666521 O
atom_frac 0.2691395378254303 0.3975833376512338 0.4999999782681305 O
atom_frac 0.1021105853291813 0.4351399802805617 0.3333646149893267 O
atom_frac 0.2311629413912364 0.5646139518848482 0.3330299101442078 O
atom_frac 0.1698666602062937 0.4990120501321519 0.8314488091065616 Ti
atom_frac 0.0001834837400232 0.3302746157459645 0.6691013722195998 Ti
atom_frac 0.0644992856147448 0.6022010961983169 0.8328764232435405 O
atom_frac 0.2681739701502029 0.3979035933479088 0.8342545639920573 O
atom_frac 0.1021105862347420 0.4351399805534600 0.6666353991263484 O
atom_frac 0.2311629583301157 0.5646139453061790 0.6669700821729843 O
atom_frac 0.1647139753065508 0.8352864622385975 0.1637842671610028 Ti
atom_frac -0.0001535813638852 0.6605712366184322 0.0000000131400949 Ti
atom_frac 0.0648034516685216 0.9351981915411534 0.1663489473282232 O
atom_frac 0.2686640082445522 0.7313337080914877 0.1670664751077478 O
atom_frac 0.1023961650088905 0.7688590672325714 0.0000000070486034 O
atom_frac 0.2311422639119166 0.8976014804988257 0.0000000055966430 O
atom_frac 0.1704293708248878 0.8295695723111224 0.5000000388229198 Ti
atom_frac -0.0001824968840248 0.6697265011424407 0.3308987555763604 Ti
atom_frac 0.0644936329244946 0.9355078682874181 0.5000000136270100 O
atom_frac 0.2693815907506955 0.7306160373603150 0.4999999944001575 O
atom_frac 0.1019265722150935 0.7685565850473152 0.3338899925171693 O
atom_frac 0.2314449721527048 0.8980711423182256 0.3338900008885786 O
atom_frac 0.1647140429184440 0.8352864220260485 0.8362157633165335 Ti
atom_frac -0.0001824881130948 0.6697264725061342 0.6691012943211846 Ti
atom_frac 0.0648034483778954 0.9351981920130171 0.8336510636581230 O
atom_frac 0.2686640167429112 0.7313337000111387 0.8329334930238955 O
atom_frac 0.1019265738472050 0.7685565839915774 0.6661100220417011 O
atom_frac 0.2314449731445366 0.8980711407348787 0.6661100160755346 O
atom_frac 0.4990130008579834 0.1698649157469474 0.1685531882724034 Ti
atom_frac 0.3394294802371184 0.0001555763364336 0.0000000151754366 Ti
atom_frac 0.3979056172951460 0.2681756315022567 0.1657452697255270 O
atom_frac 0.6021991200788447 0.0644976442750207 0.1671233310528622 O
atom_frac 0.4356115445568505 0.1014334391340103 -0.0000000030128729 O
atom_frac 0.5650618129957300 0.2311924211858994 0.0000000012745252 O
atom_frac 0.5021645021033070 0.1603670768961729 0.5000000018184997 Ti
atom_frac 0.3302732330019952 0.0001821966824069 0.3308996944175485 Ti
atom_frac 0.3975852521883669 0.2691411828059973 0.4999999801399339 O
atom_frac 0.6018545754141239 0.0644349473505487 0.5000000123502015 O
atom_frac 0.4351384087426195 0.1021125749780243 0.3333642668175424 O
atom_frac 0.5646159284786907 0.2311612640525292 0.3330300280627854 O
atom_frac 0.4990129937544017 0.1698649543435027 0.8314468430526341 Ti
atom_frac 0.3302732757743637 0.0001822103360007 0.6691003559946609 Ti
atom_frac 0.3979056312352833 0.2681756490417221 0.8342546905115864 O
atom_frac 0.6021991252096077 0.0644976472647995 0.8328766802944012 O
atom_frac 0.4351384072859226 0.1021125759820779 0.6666357465068740 O
atom_frac 0.5646159222920195 0.2311612800742384 0.6669699676546913 O
atom_frac 0.5000003830656952 0.5000004489893857 0.1623255287363458 Ti
atom_frac 0.3299998121676049 0.3299975310653792 0.0000000130450914 Ti
atom_frac 0.3977944821743486 0.6022069405457906 0.1663847819559370 O
atom_frac 0.6022052898074798 0.3977927967731913 0.1663847799950024 O
atom_frac 0.4353484160656520 0.4353502296425049 -0.0000000731510632 O
atom_frac 0.5646509233618011 0.5646491064990875 -0.0000000736851889 O
atom_frac 0.4999993448687780 0.4999994396475906 0.4999997388154531 Pt
atom_frac 0.3340084567046502 0.3340086188506040 0.3375554227276912 Ti
atom_frac 0.3981918694413699 0.6018086595361685 0.4999999125717598 O
atom_frac 0.6018072994806537 0.3981905135025087 0.4999999154052510 O
atom_frac 0.4340029711293653 0.4340045976592568 0.3282681363335345 O
atom_frac 0.5659963234177028 0.5659946440001146 0.3282687005267267 O
atom_frac 0.5000003755252674 0.5000004288025048 0.8376744869961470 Ti
atom_frac 0.3340085645486402 0.3340087227018952 0.6624445242153284 Ti
atom_frac 0.3977944988181927 0.6022069252959298 0.8336151697406733 O
atom_frac 0.6022052733188596 0.3977928129757928 0.8336151710005281 O
atom_frac 0.4340030114275508 0.4340046395434728 0.6717315807257518 O
atom_frac 0.5659962788990929 0.5659946021550827 0.6717310178675427 O
atom_frac 0.5009875431861146 0.8301355599714632 0.1685533895944270 Ti
atom_frac 0.3308385242580022 0.6691649564530640 0.0000001058241390 Ti
atom_frac 0.3978006489383228 0.9355020600779101 0.1671234209387980 O
atom_frac 0.6020940305761221 0.7318239430133028 0.1657454237734030 O
atom_frac 0.4349377723511286 0.7688073086943823 0.0000000053910464 O
atom_frac 0.5643882645526019 0.8985661104036777 -0.0000000019403946 O
atom_frac 0.4978359350441795 0.8396332431657428 0.5000000077989344 Ti
atom_frac 0.3344442572647268 0.6655556084544066 0.3301177582717558 Ti
atom_frac 0.3981451626181093 0.9355647582607425 0.5000000100749373 O
atom_frac 0.6024144425937000 0.7308584694869620 0.4999999790296035 O
atom_frac 0.4353837890966741 0.7688382477785046 0.3330300304234841 O
atom_frac 0.5648611757805809 0.8978870440750526 0.3333641653756619 O
atom_frac 0.5009875590655966 0.8301355287853731 0.8314466295986404 Ti
atom_frac 0.3344442910451257 0.6655555720237559 0.6698823810678263 Ti
atom_frac 0.3978006415252475 0.9355020552811183 0.8328765911529774 O
atom_frac 0.6020940153107162 0.7318239232338164 0.8342545384318096 O
atom_frac 0.4353837954414568 0.7688382310139451 0.6669699642355689 O
atom_frac 0.5648611750176609 0.8978870424418421 0.6666358510011399 O
atom_frac 0.8352861389286191 0.1647137587650440 0.1637842672505533 Ti
atom_frac 0.6605710588367780 -0.0001550573509030 0.0000000120530631 Ti
atom_frac 0.7313357084136765 0.2686659968521680 0.1670664666109339 O
atom_frac 0.9351963477140399 0.0648016121766695 0.1663489377337491 O
atom_frac 0.7688573835211976 0.1023981768415621 0.0000000026394659 O
atom_frac 0.8976035017731967 0.2311405678129969 0.0000000055619833 O
atom_frac 0.8295717915503694 0.1704315760459897 0.5000000309483188 Ti
atom_frac 0.6697278544656851 -0.0001812070896348 0.3308997540541853 Ti
atom_frac 0.7306182438667569 0.2693837585395784 0.4999999962178596 O
atom_frac 0.9355062215733423 0.0644919922058719 0.5000000103132217 O
atom_frac 0.7685547812701552 0.1019285099499881 0.3338900200671949 O
atom_frac 0.8980730893433769 0.2314431705161073 0.3338899538938159 O
atom_frac 0.8352860727292472 0.1647138281945989 0.8362157773317371 Ti
atom_frac 0.6697278324462158 -0.0001811998148773 0.6691002986391950 Ti
atom_frac 0.7313357019681319 0.2686660061956997 0.8329335006874272 O
atom_frac 0.9351963522486794 0.0648016104118297 0.8336510705397068 O
atom_frac 0.7685547798761813 0.1019285122686968 0.6661099983133802 O
atom_frac 0.8980730891596985 0.2314431723039617 0.6661100611585405 O
atom_frac 0.8301338420312531 0.5009884991224715 0.1685514082278858 Ti
atom_frac 0.6691624673541571 0.3308362191709192 0.0000001150622264 Ti
atom_frac 0.7318256436355918 0.6020960676062663 0.1657455344954570 O
atom_frac 0.9355004410601627 0.3977986761858881 0.1671236708196874 O
atom_frac 0.7688056186527203 0.4349400122634324 0.0000000026492163 O
atom_frac 0.8985678810882433 0.5643863920586294 -0.0000000044444853 O
atom_frac 0.8396340903706397 0.4978354917742376 0.5000000081849607 Ti
atom_frac 0.6655565241265567 0.3344451443399600 0.3301177511491368 Ti
atom_frac 0.7308601524406575 0.6024163509679502 0.4999999824000231 O
atom_frac 0.9355629614430353 0.3981433559399298 0.5000000096447295 O
atom_frac 0.7688365969992274 0.4353857421881783 0.3330298964390053 O
atom_frac 0.8978890463340565 0.5648596084312779 0.3333645057968636 O
atom_frac 0.8301338135048959 0.5009885085639356 0.8314486119955024 Ti
atom_frac 0.6655564885246152 0.3344451737628719 0.6698823821019266 Ti
atom_frac 0.7318256226230070 0.6020960530502369 0.8342544262791936 O
atom_frac 0.9355004339330193 0.3977986680172302 0.8328763382855179 O
atom_frac 0.7688365783831447 0.4353857499955994 0.6669701001912955 O
atom_frac 0.8978890465937296 0.5648596059575324 0.6666355082720885 O
atom_frac 0.8346211862607992 0.8346211345523634 0.1679367204779743 Ti
atom_frac 0.6700024758395187 0.6700047947011433 0.0000000147354871 Ti
atom_frac 0.7316124817329147 0.9353647744254008 0.1666831393187763 O
atom_frac 0.9353627099297502 0.7316106955286913 0.1666831001144232 O
atom_frac 0.7688674586607424 0.7688696467148816 -0.0000000047859811 O
atom_frac 0.8984226013634844 0.8984207629727420 0.0000000075238416 O
atom_frac 0.8317250008388298 0.8317241854503065 0.5000000634938425 Ti
atom_frac 0.6659915587517866 0.6659913696290916 0.3375553191681648 Ti
atom_frac 0.7318070133905168 0.9350947591053334 0.5000000049530740 O
atom_frac 0.9350926833646801 0.7318053396304620 0.5000000052409003 O
atom_frac 0.7691338902146763 0.7691359068687733 0.3330956246239505 O
atom_frac 0.8982798973727013 0.8982781839100824 0.3328822310228839 O
atom_frac 0.8346211163232788 0.8346210561532474 0.8320632931224641 Ti
atom_frac 0.6659914348213136 0.6659912409298898 0.6624446415111219 Ti
atom_frac 0.7316124773744861 0.9353647733792889 0.8333168787736777 O
atom_frac 0.9353627071472118 0.7316106867491721 0.8333169152555936 O
atom_frac 0.7691338874248070 0.7691359048165956 0.6669043777929194 O
atom_frac 0.8982798902176425 0.8982781764528317 0.6671177761255487 O
