#=======================================================
# FHI-aims file: ./geometry.in
# Created using the Atomic Simulation Environment (ASE)
# Sat Jun  1 05:40:21 2024
#=======================================================
lattice_vector 13.7870999999999988 0.0000000000000000 0.0000000000000000 
lattice_vector 0.0000000000000000 13.7870999999999988 0.0000000000000000 
lattice_vector 0.0000000000000000 0.0000000000000000 8.8766999999999996 
atom_frac 0.1637240961682290 0.1636622718341509 0.1645718231397462 Ti
atom_frac -0.0000013180906240 0.0000011225931656 -0.0031625753217993 Ti
atom_frac 0.0638727972877586 0.2679645670827133 0.1664380124223054 O
atom_frac 0.2679624320130493 0.0638709119589746 0.1664337369204782 O
atom_frac 0.1008755359645781 0.1008709490952604 -0.0003459693772808 O
atom_frac 0.2299291042281606 0.2299324645810446 0.0001869303195850 O
atom_frac 0.1646318294226625 0.1647932945821297 0.5041801476078707 Ti
atom_frac 0.0000003893395332 -0.0000004557279956 0.3332403129759113 Ti
atom_frac 0.0638316096668514 0.2683356734661403 0.4999533341051516 O
atom_frac 0.2683402852883861 0.0638297231327883 0.4999610546148250 O
atom_frac 0.1001536428681692 0.1001521018588891 0.3331498634307680 O
atom_frac 0.2282896652121815 0.2282818126032592 0.3335117356511624 O
atom_frac 0.1701105701921012 0.1700372718371415 0.8335487892438193 Ti
atom_frac -0.0000011789720834 0.0000005018997698 0.6683301618044477 Ti
atom_frac 0.0642256537551622 0.2689375039636093 0.8333751027485271 O
atom_frac 0.2689349313150791 0.0642211837279464 0.8333837961786950 O
atom_frac 0.1008608340145190 0.1008635253231209 0.6669032491337327 O
atom_frac 0.2298447042054805 0.2298401070397677 0.6661483971629016 O
atom_frac 0.1627417906643613 0.5019452678593378 0.1660550896162379 Ti
atom_frac 0.0000119934904704 0.3314942450120216 -0.0023354210812884 Ti
atom_frac 0.0650496484286191 0.6019190999911422 0.1666357556625624 O
atom_frac 0.2667010360367817 0.3959302983673766 0.1654527771119638 O
atom_frac 0.1014953531697566 0.4358398823772466 -0.0004514345400168 O
atom_frac 0.2324641299966153 0.5640409139680348 0.0001530400852396 O
atom_frac 0.1692945012853227 0.4985679381574616 0.4989533156792824 Ti
atom_frac 0.0009015170292798 0.3320335300954920 0.3348187201073235 Ti
atom_frac 0.0649602553558979 0.6020387001974453 0.4995373409212575 O
atom_frac 0.2658428584285467 0.3959207828485812 0.5006784710329651 O
atom_frac 0.1017834397792389 0.4353496558192776 0.3330058205243824 O
atom_frac 0.2318963579694153 0.5645480937671816 0.3337868115178232 O
atom_frac 0.1689894227438684 0.4977545395649424 0.8340623910159324 Ti
atom_frac -0.0010775712822270 0.3374291268644608 0.6664632044710974 Ti
atom_frac 0.0656356125729049 0.6025113422323414 0.8334583847165465 O
atom_frac 0.2674231193455273 0.3971690972480174 0.8322393729547259 O
atom_frac 0.1010630196819917 0.4362415065890726 0.6670014276006649 O
atom_frac 0.2327386747453301 0.5642404447979018 0.6659104687351769 O
atom_frac 0.1641694300514765 0.8357463261792154 0.1671487080158666 Ti
atom_frac -0.0000117327953377 0.6685059093179673 -0.0023359193179504 Ti
atom_frac 0.0649484353544307 0.9350461008388611 0.1663124958818406 O
atom_frac 0.2690124999723746 0.7309720361515102 0.1662777865238713 O
atom_frac 0.1025025412579885 0.7684742591344678 -0.0000940616626142 O
atom_frac 0.2315272296211504 0.8974789302323624 -0.0000932811031779 O
atom_frac 0.1647135946876958 0.8353896460739814 0.5015489792746114 Ti
atom_frac -0.0009025005686232 0.6679674900325362 0.3348183380431668 Ti
atom_frac 0.0649662962546830 0.9350351623350475 0.5000565393288531 O
atom_frac 0.2697295108420454 0.7302784106691692 0.5011246421404544 O
atom_frac 0.1026302623784766 0.7684207638344831 0.3331505701413580 O
atom_frac 0.2315724312312655 0.8973713897394688 0.3331452025469795 O
atom_frac 0.1673002936557255 0.8326107055959692 0.8321878799992133 Ti
atom_frac 0.0010807094463566 0.6625712841317809 0.6664633843885209 Ti
atom_frac 0.0648668736554670 0.9351279237786755 0.8332292154695012 O
atom_frac 0.2695240335526163 0.7304630368192683 0.8330647858346206 O
atom_frac 0.1028421885436526 0.7684229349713656 0.6667454155430516 O
atom_frac 0.2315674494899259 0.8971605453042518 0.6667555019138406 O
atom_frac 0.5018098261331895 0.1626301305281587 0.1661327727277389 Ti
atom_frac 0.3314773492020559 -0.0002300815914958 -0.0023405001360237 Ti
atom_frac 0.3959320649810418 0.2666853431103407 0.1654338651022946 O
atom_frac 0.6019150446503856 0.0650470033054819 0.1666165717143757 O
atom_frac 0.4358421826230092 0.1014848502255268 -0.0004584278082556 O
atom_frac 0.5640551875204964 0.2324714844172367 0.0001501361977315 O
atom_frac 0.4988184712275778 0.1694093075763489 0.4989642535204173 Ti
atom_frac 0.3319839468014946 0.0009864574513458 0.3348671886398220 Ti
atom_frac 0.3959415970918497 0.2658443773451112 0.5006754505747906 O
atom_frac 0.6020492057114341 0.0649619848464842 0.4995421820727974 O
atom_frac 0.4353562560143862 0.1017819880910807 0.3330007180657455 O
atom_frac 0.5645529362586337 0.2318948241100188 0.3337739060182938 O
atom_frac 0.4976382384757979 0.1688938610601221 0.8339887134057371 Ti
atom_frac 0.3373870465380199 -0.0009882094806681 0.6664116038777733 Ti
atom_frac 0.3971654941856742 0.2674148737045510 0.8322452632315082 O
atom_frac 0.6025123433977461 0.0656391024744885 0.8334556280846088 O
atom_frac 0.4362428197116831 0.1010667693792676 0.6670159186853756 O
atom_frac 0.5642410722817225 0.2327386323380519 0.6659164046669310 O
atom_frac 0.4999998289247941 0.5000001696604369 0.1890090865355079 Ti
atom_frac 0.3359564635372586 0.3360107010230829 0.0011753292544150 Ti
atom_frac 0.3978939512584082 0.6021141712092841 0.1696441672772110 O
atom_frac 0.6021060705244210 0.3978859162952211 0.1696438132324491 O
atom_frac 0.4338978092752753 0.4338915647318707 -0.0018188858349720 O
atom_frac 0.5661018366411784 0.5661085926863216 -0.0018191453549303 O
atom_frac 0.4999983193317890 0.5000010292689760 0.4869729249412815 W
atom_frac 0.3260639158033701 0.3260082763505438 0.3270793295873847 Ti
atom_frac 0.4018194919305748 0.5981760345787300 0.4989239815575074 O
atom_frac 0.5981810318075746 0.4018228811813646 0.4989243525775192 O
atom_frac 0.4273184783428199 0.4273186787965809 0.3378298259923217 O
atom_frac 0.5726830468859397 0.5726791846503659 0.3378303637347117 O
atom_frac 0.5000000862391131 0.4999996419267538 0.8447827120933126 Ti
atom_frac 0.3371194463377076 0.3370729198444631 0.6631837875479941 Ti
atom_frac 0.3984845983758597 0.6015153218789464 0.8335549794022621 O
atom_frac 0.6015151214099584 0.3984847123950555 0.8335553449049580 O
atom_frac 0.4346039144778574 0.4345999498705911 0.6664235573967577 O
atom_frac 0.5653961913396334 0.5653992354039739 0.6664233777950666 O
atom_frac 0.4981890798278518 0.8373707035204464 0.1661338253721207 Ti
atom_frac 0.3373175588701225 0.6629490784654469 0.0019039925415662 Ti
atom_frac 0.3980848167453536 0.9349525736234324 0.1666165583116673 O
atom_frac 0.6040678320621570 0.7333142090077790 0.1654338554952581 O
atom_frac 0.4359448460812858 0.7675281333412280 0.0001502663972723 O
atom_frac 0.5641578189578484 0.8985149767691550 -0.0004581395221633 O
atom_frac 0.5011807719652215 0.8305883503471073 0.4989649027435449 Ti
atom_frac 0.3286768875786026 0.6712271793013415 0.3295243405497310 Ti
atom_frac 0.3979507505932764 0.9350376327595422 0.4995419352036236 O
atom_frac 0.6040582818585514 0.7341547950263457 0.5006753410700280 O
atom_frac 0.4354470068201570 0.7681047008433447 0.3337737909679759 O
atom_frac 0.5646436540455209 0.8982177367615999 0.3330006127370188 O
atom_frac 0.5023653476135127 0.8311081403536408 0.8339878967378966 Ti
atom_frac 0.3310826919329415 0.6688118285547184 0.6702134302907039 Ti
atom_frac 0.3974877935874565 0.9343608241021588 0.8334557281656405 O
atom_frac 0.6028348759797429 0.7325849345839317 0.8322451352137760 O
atom_frac 0.4357588911577273 0.7672609594353513 0.6659161744085316 O
atom_frac 0.5637573211501099 0.8989328127463344 0.6670157960766909 O
atom_frac 0.8358288072879774 0.1642537253103876 0.1671497751345989 Ti
atom_frac 0.6685234422856551 0.0002319362842237 -0.0023404272964914 Ti
atom_frac 0.7309872065651566 0.2690278613246548 0.1662780380272866 O
atom_frac 0.9350512197752795 0.0649538133693740 0.1663123354078314 O
atom_frac 0.7684724851779096 0.1025209885747617 -0.0000931871903379 O
atom_frac 0.8974971119441069 0.2315258433518590 -0.0000940144810706 O
atom_frac 0.8352861382367291 0.1646108582281093 0.5015485998722037 Ti
atom_frac 0.6680140750093938 -0.0009870638084455 0.3348669280667642 Ti
atom_frac 0.7302703994956397 0.2697215662159629 0.5011249525761989 O
atom_frac 0.9350336384383017 0.0649647508150172 0.5000564197915600 O
atom_frac 0.7684273476619178 0.1026285040449010 0.3331452220454532 O
atom_frac 0.8973695656419601 0.2315790628743470 0.3331506443656644 O
atom_frac 0.8326980304853072 0.1673945437675255 0.8321874093810192 Ti
atom_frac 0.6626161682772630 0.0009884499376699 0.6664116618721414 Ti
atom_frac 0.7304757977111215 0.2695372484690572 0.8330641576517560 O
atom_frac 0.9351328849790386 0.0648721660938405 0.8332291964974146 O
atom_frac 0.7684324514437266 0.1028391390580064 0.6667554008111879 O
atom_frac 0.8971576977678075 0.2315769692671133 0.6667453679036508 O
atom_frac 0.8372575020565235 0.4980554466817512 0.1660562464661474 Ti
atom_frac 0.6626861646684845 0.3370533917374400 0.0019047463306239 Ti
atom_frac 0.7332990798640846 0.6040693908394450 0.1654525016597245 O
atom_frac 0.9349504199728083 0.3980807085477888 0.1666357404483525 O
atom_frac 0.7675359399424929 0.4359587689075671 0.0001527910464882 O
atom_frac 0.8985049297411412 0.5641599200828412 -0.0004515091638766 O
atom_frac 0.8307047809185675 0.5014315485725649 0.4989532653213882 Ti
atom_frac 0.6713203626033377 0.3287727856401820 0.3295261275395940 Ti
atom_frac 0.7341576603570178 0.6040790573679687 0.5006788108689463 O
atom_frac 0.9350399163581670 0.3979609991888403 0.4995374067583705 O
atom_frac 0.7681037694992083 0.4354518473637257 0.3337865981397167 O
atom_frac 0.8982166633460236 0.5646500816302089 0.3330056715608560 O
atom_frac 0.8310143055556386 0.5022457981116999 0.8340605411934356 Ti
atom_frac 0.6689149199092336 0.3311910520468298 0.6702095844775506 Ti
atom_frac 0.7325772755596816 0.6028306728159850 0.8322394993072403 O
atom_frac 0.9343644724883385 0.3974885896855496 0.8334586000058040 O
atom_frac 0.7672613216796628 0.4357595938049018 0.6659106845065600 O
atom_frac 0.8989373829078852 0.5637580883478563 0.6670015835428332 O
atom_frac 0.8362749703563831 0.8363387224010542 0.1645718846495315 Ti
atom_frac 0.6640439017990140 0.6639888247173629 0.0011750314951225 Ti
atom_frac 0.7320375864332325 0.9361288905710730 0.1664337812776993 O
atom_frac 0.9361271078121848 0.7320352852092825 0.1664380199532116 O
atom_frac 0.7700708656689456 0.7700673566683031 0.0001868803085933 O
atom_frac 0.8991243559905255 0.8991289869777832 -0.0003461600554530 O
atom_frac 0.8353679892952890 0.8352057507065135 0.5041799014913342 Ti
atom_frac 0.6739348427335636 0.6739921186092267 0.3270789568221296 Ti
atom_frac 0.7316597144857039 0.9361700007232457 0.4999607591119172 O
atom_frac 0.9361684103782435 0.7316640694658124 0.4999534218142634 O
atom_frac 0.7717103326332273 0.7717177150894771 0.3335116409494455 O
atom_frac 0.8998462541351644 0.8998477189795822 0.3331497986966028 O
atom_frac 0.8298898591748965 0.8299616980913704 0.8335487911205324 Ti
atom_frac 0.6628815694140562 0.6629250601245931 0.6631844978732501 Ti
atom_frac 0.7310650300511571 0.9357784749143099 0.8333836194734205 O
atom_frac 0.9357743051751600 0.7310622169743779 0.8333748511812299 O
atom_frac 0.7701552905689311 0.7701596153034751 0.6661483218741230 O
atom_frac 0.8991390762522686 0.8991362879851542 0.6669030156183935 O
