#=======================================================
# FHI-aims file: ./geometry.in
# Created using the Atomic Simulation Environment (ASE)
# Thu May  9 17:40:36 2024
#=======================================================
lattice_vector 3.9628000000000001 0.0000000000000000 0.0000000000000000 
lattice_vector 0.0000000000000000 13.8550000000000004 0.0000000000000000 
lattice_vector 0.0000000000000000 0.0000000000000000 3.6964000000000001 
atom_frac 0.4099552171116830 0.6031843294958864 0.2499999940813251 Mo
atom_frac 0.0900447729651311 0.1031843052296448 0.2499999779868397 Mo
atom_frac 0.5900448961218977 0.3968159223347658 0.7500000174293657 Mo
atom_frac 0.9099553127132154 0.8968154439038123 0.7500000098118532 Mo
atom_frac -0.0060965108986528 0.9347656050371058 0.2499999923706255 O
atom_frac 0.5060965807826846 0.4347655848605188 0.2500000004901597 O
atom_frac 1.0060965378059543 0.0652344456157654 0.7499999963558245 O
atom_frac 0.4939034732022737 0.5652343658887460 0.7500000111649510 O
atom_frac 0.9794895377178294 0.5890750106330147 0.2499999963539480 O
atom_frac 0.5205103885404831 0.0890750797019756 0.2499999847354101 O
atom_frac 0.0205104542404563 0.4109249622654952 0.7500000149919828 O
atom_frac 0.4794895779730439 0.9109249484518991 0.7500000036731693 O
atom_frac 0.4609884558744338 0.7223864905088906 0.2499999980357012 O
atom_frac 0.0390114758632870 0.2223866731953717 0.2499999904757799 O
atom_frac 0.5390114317740419 0.2776132620168049 0.7500000062525107 O
atom_frac 0.9609883982122389 0.7776135708603008 0.7500000057905550 O
