#=======================================================
# FHI-aims file: C:\Users\amit_\OneDrive\PhD Python\DFTdevelopment\FinalBayesianTesting\Defectvalidation\self-consistent projectors\HybridSP\SCF v3 for Archer2\Rutile\Pd\geometry.in
# Created using the Atomic Simulation Environment (ASE)
# Mon Jul 29 11:24:10 2024
#=======================================================
lattice_vector 13.7870999999999988 0.0000000000000000 0.0000000000000000 
lattice_vector 0.0000000000000000 13.7870999999999988 0.0000000000000000 
lattice_vector 0.0000000000000000 0.0000000000000000 8.8766999999999996 
atom 2.3113798882246543 2.3113281194195854 1.4591986491851265 Ti
atom 0.0000130177485423 -0.0000139368719624 -0.0000000700877283 Ti
atom 0.8918671966786164 3.7022479976303266 1.4800185938445023 O
atom 3.7022122478146349 0.8918250853171399 1.4800180826651084 O
atom 1.4044142712270629 1.4044420929486527 0.0000003435163332 O
atom 3.1838892648305621 3.1838423989893383 -0.0000005770777236 O
atom 2.2586205813589992 2.2587671647373040 4.4383519565718332 Ti
atom 0.0000019717155177 0.0000112109789848 2.9155713161439616 Ti
atom 0.8921954982387409 3.6937461927756741 4.4383502490338591 O
atom 3.6937199848767586 0.8921449233109421 4.4383495755903404 O
atom 1.3993497697646937 1.3993818939806446 2.9612488002921467 O
atom 3.1835534210259229 3.1835117733520546 2.9569905514323089 O
atom 2.3113609767338921 2.3113155971081762 7.4175043243687409 Ti
atom -0.0000261196786754 0.0000140301211870 5.9611283979929954 Ti
atom 0.8918664030560848 3.7022470375108809 7.3966815630911746 O
atom 3.7022109555624994 0.8918233963013207 7.3966818117756148 O
atom 1.3993493375842319 1.3993820790045677 5.9154516874909389 O
atom 3.1835528233745571 3.1835109034282625 5.9197098429215664 O
atom 2.3493975733147585 6.8839777919101035 1.5010082173575798 Ti
atom 0.0118003422007542 4.6959026524930962 0.0000012458565934 Ti
atom 0.8910133597419443 8.3035195962003581 1.4837031075513629 O
atom 3.6996762791546836 5.4876488870251832 1.4728470861002243 O
atom 1.3971475776707489 6.0088144248018427 0.0000000389153679 O
atom 3.1934548632379087 7.7875797221562530 -0.0000004791958029 O
atom 2.1969613934635537 6.9179298436779346 4.4383491105374286 Ti
atom -0.0015275339101813 4.5460162421208805 2.9349325305911984 Ti
atom 0.8836450964076129 8.2935613348333153 4.4383496679385823 O
atom 3.7052793843980183 5.4759073819188835 4.4383499113273395 O
atom 1.4094444688285546 5.9989473881382418 2.9569039978618985 O
atom 3.1859474061648476 7.7855599736722274 2.9557367575860383 O
atom 2.3493976324032935 6.8839810719704868 7.3756928260640917 Ti
atom -0.0015244219901646 4.5460208648629425 5.9417660815612461 Ti
atom 0.8910131033886617 8.3035185799040132 7.3929968169874307 O
atom 3.6996765894080261 5.4876495248599335 7.4038522630457910 O
atom 1.4094442365279378 5.9989463121459767 5.9197952582374276 O
atom 3.1859458579775013 7.7855609235387107 5.9209630317176858 O
atom 2.3256212556347746 11.4614822215588905 1.4455182275194287 Ti
atom -0.0117950675024575 9.0911979822369275 0.0000009405695768 Ti
atom 0.8905551252875464 12.8965790894100820 1.4817761656250730 O
atom 3.7051401174876926 10.0819183658137579 1.4831633275213361 O
atom 1.4168971181167094 10.5986428522375959 -0.0000001664979696 O
atom 3.1884957482022265 12.3701622593260705 -0.0000003493996213 O
atom 2.2423261991019348 11.5446658554703401 4.4383516459524204 Ti
atom 0.0015297093402148 9.2410861619128699 2.9349344812383862 Ti
atom 0.8968618739200916 12.8902593928596083 4.4383494774465424 O
atom 3.7227446925845449 10.0643091707225132 4.4383491371690837 O
atom 1.4058042317307762 10.5947491907040892 2.9644961586090015 O
atom 3.1923808401742670 12.3812561140015305 2.9644930189919139 O
atom 2.3255953803757765 11.4614890100358231 7.4311845399369378 Ti
atom 0.0015229666570167 9.2410773473646053 5.9417642632556946 Ti
atom 0.8905550220635154 12.8965779310857069 7.3949237308914091 O
atom 3.7051390624500695 10.0819180459959199 7.3935365044740005 O
atom 1.4058041214870296 10.5947486752006697 5.9122032645006470 O
atom 3.1923807659528070 12.3812556754845442 5.9122059382934804 O
atom 6.8839657892407011 2.3492904068890850 1.5010767912527900 Ti
atom 4.6959395084422804 0.0117527158390734 -0.0000012324119554 Ti
atom 5.4876887446401152 3.6997019152072506 1.4728433777014462 O
atom 8.3034746973338720 0.8909835115369539 1.4836993899392579 O
atom 6.0087812217777650 1.3971728320024830 -0.0000000964218686 O
atom 7.7876300342794931 3.1934271401877106 -0.0000000810327325 O
atom 6.9179552524623018 2.1970059601321368 4.4383501369903655 Ti
atom 4.5459058372227243 -0.0015615199679688 2.9349966909683047 Ti
atom 5.4759491673014971 3.7053172779499413 4.4383503030156000 O
atom 8.2935344123882473 0.8836085732154650 4.4383498519229363 O
atom 5.9989217189309310 1.4094889242329200 2.9568994052075386 O
atom 7.7856011259916595 3.1859116124569256 2.9557365335494263 O
atom 6.8839602420246635 2.3492859405845463 7.3756233097059596 Ti
atom 4.5459001796490126 -0.0015661731701716 5.9417049451825354 Ti
atom 5.4876876936201668 3.6997015423773467 7.4038562926829918 O
atom 8.3034752069134363 0.8909841501183779 7.3930007809617830 O
atom 5.9989212098557791 1.4094898671569220 5.9198006431292232 O
atom 7.7856007238088596 3.1859117024471018 5.9209639439245221 O
atom 6.8935551864760853 6.8935548180455086 1.5162037234584862 Ti
atom 4.6471473923111608 4.6470732935134746 0.0000018655650143 Ti
atom 5.4881279851861500 8.2990056051999659 1.4710795174422930 O
atom 8.2989740459322690 5.4880928141942436 1.4710809617834404 O
atom 5.9969023509883899 5.9969279045159904 -0.0000005158888051 O
atom 7.7901990948231967 7.7901700993392193 0.0000006602238031 O
atom 6.8935500302642438 6.8935494665757071 4.4383499194024267 Pd
atom 4.5608666699236213 4.5608666459702523 3.0011173071637769 Ti
atom 5.4904772833760740 8.2966484954487711 4.4383499071442740 O
atom 8.2966232974585434 5.4904496657900790 4.4383500437326440 O
atom 5.9851831483599494 5.9852159816926997 2.9147232358369339 O
atom 7.8019179382393000 7.8018835113481941 2.9147240579997673 O
atom 6.8935361393098997 6.8935540536938333 7.3604953539329774 Ti
atom 4.5608542275798616 4.5608572862451986 5.8755888848504743 Ti
atom 5.4881271629238748 8.2990054809310720 7.4056205883461335 O
atom 8.2989730400580957 5.4880930242932013 7.4056188999282906 O
atom 5.9851828531202980 5.9852151761435648 5.9619755416684841 O
atom 7.8019178741876214 7.8018825888741734 5.9619765694634790 O
atom 6.9031342850903386 11.4378113467301379 1.5010771735178439 Ti
atom 4.6311436067252103 9.1561517793273932 -0.0000016785942496 Ti
atom 5.4836258829921185 12.8961140367259919 1.4836989057864840 O
atom 8.2994123586626873 10.0873965487595552 1.4728430725538293 O
atom 5.9994700494286191 10.5936718380275909 -0.0000002393870018 O
atom 7.7783202407281387 12.3899252178804247 0.0000006069430770 O
atom 6.8691467544631140 11.5900936058784936 4.4383513129264545 Ti
atom 4.5819163274424550 9.2051502389909476 2.9671142903593624 Ti
atom 5.4935664914398696 12.9034897665888550 4.4383493504161624 O
atom 8.3111521689230159 10.0817817310541802 4.4383500414850694 O
atom 6.0015000111417116 10.6011869929869480 2.9557359452313641 O
atom 7.7881798900798378 12.3776088280889383 2.9568987247155567 O
atom 6.9031390726138229 11.4378106524872667 7.3756214010365051 Ti
atom 4.5818992955590492 9.2051663267989419 5.9095877586381000 Ti
atom 5.4836261110711364 12.8961148421046072 7.3930007148988590 O
atom 8.2994121434571042 10.0873964848483570 7.4038572245065861 O
atom 6.0014998732267557 10.6011878282212404 5.9209638916307954 O
atom 7.7881792149773830 12.3776088448668329 5.9198008723107955 O
atom 11.4614977847642763 2.3256015800903991 1.4455126805790892 Ti
atom 9.0911610409365018 -0.0117576290864062 -0.0000010649004000 Ti
atom 10.0819611349598262 3.7051811927680163 1.4831638719252371 O
atom 12.8965426744041469 0.8905224979227240 1.4817750356077064 O
atom 10.5986038836534444 1.4169382089368368 -0.0000000514938998 O
atom 12.3702026302635666 3.1884569190897567 0.0000007620178848 O
atom 11.5447471219241375 2.2424620839252412 4.4383488872806280 Ti
atom 9.2411937786428613 0.0015632561349225 2.9349945872567740 Ti
atom 10.0643583401628565 3.7227866276995005 4.4383510635262855 O
atom 12.8902343359501934 0.8968440151827024 4.4383509286190304 O
atom 10.5947181926850131 1.4058444613898364 2.9644945013369863 O
atom 12.3812959263776499 3.1923512198791264 2.9644974373354169 O
atom 11.4614882687884059 2.3256248823031775 7.4311847544127039 Ti
atom 9.2412006396592368 0.0015666580846346 5.9417059013890077 Ti
atom 10.0819605415940181 3.7051813789828310 7.3935357114001405 O
atom 12.8965439075848156 0.8905226693556386 7.3949258316248896 O
atom 10.5947189927066159 1.4058439907812676 5.9122060969485277 O
atom 12.3812958832359570 3.1923517448749612 5.9122030353618547 O
atom 11.4377069030825158 6.9031268074970971 1.5010080297597324 Ti
atom 9.1559575659991772 4.6309501871200069 0.0000017593863633 Ti
atom 10.0874254875490781 8.2994504740270685 1.4728477868138239 O
atom 12.8960887989429622 5.4835798939515907 1.4837037978807166 O
atom 10.5936464162590092 5.9995198178444253 0.0000000233889978 O
atom 12.3899543061658850 7.7782841311345958 0.0000003889614377 O
atom 11.5901384094847462 6.8691667768110074 4.4383496181761242 Ti
atom 9.2051978698720180 4.5819408377985402 2.9671056507408022 Ti
atom 10.0818203877215566 8.3111904657620581 4.4383495554920964 O
atom 12.9034565322100168 5.4935373805966190 4.4383501481994667 O
atom 10.6011548327125027 6.0015382364454597 2.9557375414850671 O
atom 12.3776567232601593 7.7881520596571772 2.9569051510984847 O
atom 11.4377021050601826 6.9031179176142077 7.3756933971463194 Ti
atom 9.2051760465745094 4.5819525119919602 5.9095922155250200 Ti
atom 10.0874250789462501 8.2994497433703671 7.4038523802805303 O
atom 12.8960883130871622 5.4835798043662383 7.3929966910757461 O
atom 10.6011537884103664 6.0015386932487829 5.9209631653006287 O
atom 12.3776570015171501 7.7881524679596099 5.9197953006164123 O
atom 11.4757375878188164 11.4757841527809230 1.4591963961708161 Ti
atom 9.1399524743561624 9.1400273873207425 -0.0000016013222045 Ti
atom 10.0848900461269579 12.8952753462034071 1.4800182147621690 O
atom 12.8952343492274668 10.0848515423037277 1.4800183818994379 O
atom 10.6032115235857258 10.6032567516356195 0.0000002848483143 O
atom 12.3826887773374423 12.3826547604328798 -0.0000004866380051 O
atom 11.5284762661041214 11.5283368897436880 4.4383477790938137 Ti
atom 9.2262435244090355 9.2262434000498175 3.0011118388002060 Ti
atom 10.0933801110324790 12.8949531630467487 4.4383501241724943 O
atom 12.8949068438116381 10.0933535541208403 4.4383499466063663 O
atom 10.6035481613179794 10.6035877390688320 2.9569902385509446 O
atom 12.3877493713119815 12.3877185711930515 2.9612485129043811 O
atom 11.4757258909951982 11.4757671567878816 7.4175012703544692 Ti
atom 9.2262386442681521 9.2262297811793843 5.8755831811452515 Ti
atom 10.0848886005791201 12.8952742273504466 7.3966821188838576 O
atom 12.8952338669888267 10.0848508907393946 7.3966804502814725 O
atom 10.6035477058050880 10.6035865670480600 5.9197097272747339 O
atom 12.3877484837596317 12.3877191344101778 5.9154512984685326 O
