#=======================================================
# FHI-aims file: ./geometry.in
# Created using the Atomic Simulation Environment (ASE)
# Tue Jul 16 18:41:11 2024
#=======================================================
lattice_vector 11.3550000000000004 0.0000000000000000 0.0000000000000000 
lattice_vector 0.0000000000000000 11.3550000000000004 0.0000000000000000 
lattice_vector 0.0000000000000000 0.0000000000000000 28.5398999999999958 
atom_frac 0.1667572849344800 0.2500243152472829 0.2920277013214193 Ti
atom_frac 0.0001724487484284 0.2499968346095958 0.2085239726791022 Ti
atom_frac 0.1666581169377744 0.0833333295553680 0.0416753018725293 Ti
atom_frac -0.0000032155209449 0.0833333373378960 0.1250981363880223 Ti
atom_frac 0.1666454832699662 0.2499923239084283 0.0273172760908115 O
atom_frac 0.0001519290891416 0.2500843089047879 0.2775979157279418 O
atom_frac 0.1666939147957516 0.0833330865147801 0.3064479007772380 O
atom_frac -0.0000150800265966 0.0833333571593747 0.0560335818777157 O
atom_frac 0.0001211819321512 0.0833333253840046 0.1941781031661430 O
atom_frac 0.1666636304924539 0.0833333371927234 0.1107333537391092 O
atom_frac 0.0000602109637379 0.2499788762027370 0.1394494322949801 O
atom_frac 0.1667190245405090 0.2500203722520294 0.2228920417066479 O
atom_frac 0.1657414454447074 0.2500606705311710 0.6251880992967743 Ti
atom_frac -0.0001033662219362 0.2498968245782251 0.5416668823847526 Ti
atom_frac 0.1682157909653084 0.0833330305778249 0.3754806004860962 Ti
atom_frac 0.0003289382770706 0.0833335532166378 0.4582973510140755 Ti
atom_frac 0.1682899545849940 0.2501836960354318 0.3611184595451357 O
atom_frac -0.0003546469867564 0.2504424293413305 0.6107988095251374 O
atom_frac 0.1657154670862188 0.0833333739064653 0.6393720946756083 O
atom_frac 0.0006286969815974 0.0833331039816990 0.3895377567179384 O
atom_frac -0.0002168770980111 0.0833335558337103 0.5274513205931267 O
atom_frac 0.1675260620545638 0.0833335783505398 0.4447313162579715 O
atom_frac 0.0004422928679695 0.2496454620723732 0.4725343366805975 O
atom_frac 0.1661342785395607 0.2497252561454049 0.5562741581568699 O
atom_frac 0.1666169732843479 0.2499960469627253 0.9582559936099095 Ti
atom_frac -0.0000031381542608 0.2501724726370414 0.8748097093850401 Ti
atom_frac 0.1665354834672410 0.0833333459214394 0.7082178763605047 Ti
atom_frac -0.0001778714593912 0.0833333267946359 0.7915346576604925 Ti
atom_frac 0.1659229680834843 0.2505377431334945 0.6939822907317081 O
atom_frac -0.0000210451628694 0.2500602423884170 0.9438836126393921 O
atom_frac 0.1666065851132781 0.0833333832266159 0.9726002605033491 O
atom_frac -0.0001801323708541 0.0833333828194522 0.7224763941597502 O
atom_frac -0.0000995197617771 0.0833333500926410 0.8605115995370993 O
atom_frac 0.1666705447513398 0.0833333817925562 0.7772272392331773 O
atom_frac 0.0000847162655327 0.2501519514700511 0.8057351531580667 O
atom_frac 0.1666567957507361 0.2500265060097781 0.8891918478452675 O
atom_frac 0.1666243032573693 0.5833329928283595 0.2919098417777973 Ti
atom_frac 0.0000768596395154 0.5833333149916701 0.2084423509462415 Ti
atom_frac 0.1666749011129053 0.4166749689170878 0.0416667746737815 Ti
atom_frac -0.0000040642346192 0.4166169156800281 0.1250770290399423 Ti
atom_frac 0.1666532379788137 0.5833333732366081 0.0273236935826481 O
atom_frac 0.0000745979174446 0.5833330549697074 0.2775297268258149 O
atom_frac 0.1672454071407904 0.4166606124056397 0.3063531647728260 O
atom_frac -0.0000076797456002 0.4166455963188234 0.0560164189464962 O
atom_frac 0.0000265334437375 0.4166567654019714 0.1941418379428611 O
atom_frac 0.1666607801785657 0.4166476388740804 0.1107312669826200 O
atom_frac 0.0000041376136108 0.5833333533099470 0.1394120149312825 O
atom_frac 0.1666629195222444 0.5833333071985627 0.2228092390067745 O
atom_frac 0.1667342235354533 0.5833333575549592 0.6228486114174059 Ti
atom_frac 0.0025667665884383 0.5833335886402400 0.5401778587368359 Ti
atom_frac 0.1679442056942174 0.4168642437892758 0.3754431007945661 Ti
atom_frac 0.0000606061225507 0.4157417979848071 0.4581450753074511 Ti
atom_frac 0.1665124813874054 0.5833331424974810 0.3609416360054283 O
atom_frac 0.0017143747879833 0.5833333906993950 0.6092745854219115 O
atom_frac 0.1676412798518794 0.4170669910387645 0.6386177616132996 O
atom_frac 0.0005376449254758 0.4159230449494540 0.3893514526681938 O
atom_frac -0.0002740351023708 0.4161344194033453 0.5270596084309925 O
atom_frac 0.1670670313313436 0.4176413047583855 0.4447153212645669 O
atom_frac -0.0007309849104999 0.5833335392141898 0.4719474016512386 O
atom_frac 0.1688826156443093 0.5833334633684329 0.5537566666319035 O
atom_frac 0.1666517065340777 0.5833333237523670 0.9582477567797085 Ti
atom_frac -0.0000259772511472 0.5833333163076923 0.8748313402521940 Ti
atom_frac 0.1668645738146852 0.4179444225305490 0.7078904845928335 Ti
atom_frac 0.0000245386529186 0.4167572857956714 0.7913053313743563 Ti
atom_frac 0.1689679167539842 0.5833333876749049 0.6928268097140587 O
atom_frac -0.0000099038649375 0.5833333504609548 0.9439112547876652 O
atom_frac 0.1666475999259190 0.4166607712704632 0.9726018023040607 O
atom_frac 0.0001840955247746 0.4182906206774964 0.7222151590323995 O
atom_frac 0.0000204017230569 0.4167190830197575 0.8604416064879727 O
atom_frac 0.1666607478272068 0.4172454021708911 0.7769798869535623 O
atom_frac -0.0002973457883568 0.5833333569005820 0.8057990014119476 O
atom_frac 0.1666564283027374 0.5833333383928863 0.8891982422729718 O
atom_frac 0.1667572855909044 0.9166416807284642 0.2920277155608152 Ti
atom_frac 0.0001724428911509 0.9166698220485692 0.2085239811192188 Ti
atom_frac 0.1666749240337187 0.7499917652404821 0.0416668475960148 Ti
atom_frac -0.0000040263126826 0.7500496986934411 0.1250770481197764 Ti
atom_frac 0.1666454800170759 0.9166743428694655 0.0273172781009374 O
atom_frac 0.0001519335253504 0.9165818160446829 0.2775979099351095 O
atom_frac 0.1672453545288255 0.7500055733989945 0.3063531547926386 O
atom_frac -0.0000077094961308 0.7500210770346691 0.0560164181801308 O
atom_frac 0.0000265122738276 0.7500098325562597 0.1941418328189096 O
atom_frac 0.1666607531858321 0.7500189501405461 0.1107312568187092 O
atom_frac 0.0000602149690262 0.9166877001528664 0.1394494191037359 O
atom_frac 0.1667190063045901 0.9166462715454847 0.2228920479439997 O
atom_frac 0.1657414524814119 0.9166060404878624 0.6251881071496985 Ti
atom_frac -0.0001033661441422 0.9167703790082044 0.5416668782783345 Ti
atom_frac 0.1679442247280669 0.7498019659838698 0.3754431223797642 Ti
atom_frac 0.0000606053125456 0.7509252869154929 0.4581450797909273 Ti
atom_frac 0.1682900042513558 0.9164824891276329 0.3611184590127449 O
atom_frac -0.0003546365922642 0.9162242655301408 0.6107988091781893 O
atom_frac 0.1676413004328547 0.7495997533144800 0.6386177548067974 O
atom_frac 0.0005376488561361 0.7507434642340688 0.3893514673412278 O
atom_frac -0.0002739937221478 0.7505326598410761 0.5270596098886603 O
atom_frac 0.1670670496152453 0.7490256559729480 0.4447153196850727 O
atom_frac 0.0004422434433584 0.9170216106956809 0.4725343352903741 O
atom_frac 0.1661342797028471 0.9169417827656910 0.5562741593363409 O
atom_frac 0.1666169578453248 0.9166706884150089 0.9582560050322947 Ti
atom_frac -0.0000031241611159 0.9164941760306302 0.8748097018729418 Ti
atom_frac 0.1668645854510229 0.7487222950980679 0.7078904872193611 Ti
atom_frac 0.0000245471586167 0.7499093982494986 0.7913053307299817 Ti
atom_frac 0.1659229594608332 0.9161290029516516 0.6939822898458670 O
atom_frac -0.0000210797032190 0.9166064375110263 0.9438836025482319 O
atom_frac 0.1666475765877161 0.7500058904297517 0.9726017916646764 O
atom_frac 0.0001840941791476 0.7483761240012368 0.7222151627272766 O
atom_frac 0.0000204460621393 0.7499475925315782 0.8604416091839744 O
atom_frac 0.1666607565275379 0.7494213848511763 0.7769798784147229 O
atom_frac 0.0000847120987191 0.9165147480225215 0.8057351481051761 O
atom_frac 0.1666567857057682 0.9166401692640171 0.8891918371822271 O
atom_frac 0.4999094003612535 0.2500243149791033 0.2920276991549406 Ti
atom_frac 0.3333333303873186 0.2499739902814342 0.2085023471033603 Ti
atom_frac 0.5000085586217159 0.0833333800968736 0.0416752782992132 Ti
atom_frac 0.3333333496600096 0.0833332888387403 0.1250776256118026 Ti
atom_frac 0.5000211894947402 0.2499923789910935 0.0273172627833772 O
atom_frac 0.3333333520021821 0.2497024865126476 0.2775340689627623 O
atom_frac 0.4999727462926629 0.0833331001559177 0.3064479009885708 O
atom_frac 0.3333333551195906 0.0833333554093571 0.0560112500206314 O
atom_frac 0.3333333439153840 0.0833332990277000 0.1941367748493423 O
atom_frac 0.5000030495528808 0.0833332927990075 0.1107333596978409 O
atom_frac 0.3333333445620691 0.2499899782655947 0.1394218086107243 O
atom_frac 0.4999476684035871 0.2500203320977403 0.2228920521041684 O
atom_frac 0.5009251835465593 0.2500606775667298 0.6251880980911101 Ti
atom_frac 0.3333333140673894 0.2525664662088821 0.5431559927858206 Ti
atom_frac 0.4984509040129387 0.0833330488957167 0.3754806000247233 Ti
atom_frac 0.3333333439410258 0.0833335033616311 0.4603810217918006 Ti
atom_frac 0.4983767307443773 0.2501837009484005 0.3611184577604267 O
atom_frac 0.3333333195037317 0.2492686149722640 0.6113855182462010 O
atom_frac 0.5009511665068010 0.0833333770746383 0.6393720947939455 O
atom_frac 0.3333333434689916 0.0833331017631116 0.3901526605996429 O
atom_frac 0.3333333270109448 0.0833335056194142 0.5281882990764014 O
atom_frac 0.4991406316245935 0.0833335796902480 0.4447313166912544 O
atom_frac 0.3333333501330415 0.2517138468497687 0.4740579573556456 O
atom_frac 0.5005323637677570 0.2497252561372034 0.5562741573515508 O
atom_frac 0.5000497228172601 0.2499959795256760 0.9582559788580255 Ti
atom_frac 0.3333333467146146 0.2500769626944492 0.8748912770954762 Ti
atom_frac 0.5001311870160371 0.0833333480169040 0.7082178774768891 Ti
atom_frac 0.3333333247035556 0.0833333328788016 0.7915329810031699 Ti
atom_frac 0.5007436939700607 0.2505377398944978 0.6939822899823416 O
atom_frac 0.3333332991466509 0.2500041325652846 0.9439210934096695 O
atom_frac 0.5000600629604650 0.0833333151243333 0.9726002578071063 O
atom_frac 0.3333333376744824 0.0833333792286036 0.7223735299660217 O
atom_frac 0.3333332941047215 0.0833333754545937 0.8605337246617791 O
atom_frac 0.4999961179345468 0.0833333784255637 0.7772272409591370 O
atom_frac 0.3333333165027461 0.2500746306812409 0.8058033074619401 O
atom_frac 0.5000099005489766 0.2500265106826792 0.8891918368257198 O
atom_frac 0.5000423810085618 0.5833329952757674 0.2919098389370388 Ti
atom_frac 0.3333333273420908 0.5833333102980813 0.2084796853366640 Ti
atom_frac 0.4999917247407541 0.4166749686781694 0.0416668974410520 Ti
atom_frac 0.3333334174737821 0.4166515900953705 0.1250852452079947 Ti
atom_frac 0.5000134341928766 0.5833333173117283 0.0273236796464950 O
atom_frac 0.3333333510320118 0.5833331337460139 0.2775084957755424 O
atom_frac 0.4994212582263118 0.4166606121943955 0.3063531626898567 O
atom_frac 0.3333332998634909 0.4166531686751618 0.0560099609085976 O
atom_frac 0.3333333396978826 0.4166564170076537 0.1941354301719821 O
atom_frac 0.5000059650766657 0.4166476383363115 0.1107312574564885 O
atom_frac 0.3333333448475687 0.5833332997546992 0.1394076434368058 O
atom_frac 0.5000037725655833 0.5833333474625961 0.2228092489307669 O
atom_frac 0.4999324125903407 0.5833333496905797 0.6228486093412006 Ti
atom_frac 0.3333333246940085 0.5833334597774876 0.5416659841769060 Co
atom_frac 0.4987224867527471 0.4168642447834013 0.3754431030711694 Ti
atom_frac 0.3333333367782511 0.4167318664251211 0.4604840644901882 Ti
atom_frac 0.5001542036481565 0.5833331391534189 0.3609416336554135 O
atom_frac 0.3333333193545503 0.5833333625573752 0.6067865868112551 O
atom_frac 0.4990253517242417 0.4170669919473447 0.6386177599387646 O
atom_frac 0.3333333442696538 0.4189670742387961 0.3905066157728680 O
atom_frac 0.3333333264631266 0.4188815364794152 0.5295764388150180 O
atom_frac 0.4995996545662501 0.4176413074356493 0.4447153193719862 O
atom_frac 0.3333333405666244 0.5833334939954746 0.4765462706560306 O
atom_frac 0.4977840311756661 0.5833334624010744 0.5537566660869716 O
atom_frac 0.5000149908544368 0.5833333898102440 0.9582477430077115 Ti
atom_frac 0.3333333445827293 0.5833333649702025 0.8748539433364376 Ti
atom_frac 0.4998020778079486 0.4179444227805266 0.7078904878119892 Ti
atom_frac 0.3333333281181399 0.4166241595638542 0.7914230660563716 Ti
atom_frac 0.4976987518823482 0.5833333904481198 0.6928268102364071 O
atom_frac 0.3333333007471908 0.5833333602740944 0.9439254420448197 O
atom_frac 0.5000190925056530 0.4166607738352952 0.9726017842335631 O
atom_frac 0.3333333345810262 0.4165122642711536 0.7223919995377016 O
atom_frac 0.3333333345441927 0.4166628878903593 0.8605243965046779 O
atom_frac 0.5000059033894492 0.4172454020225390 0.7769798877333712 O
atom_frac 0.3333333200479653 0.5833333976786793 0.8058245300636022 O
atom_frac 0.5000102661453267 0.5833333329718587 0.8891982312245235 O
atom_frac 0.4999094054607329 0.9166416813130214 0.2920277085174863 Ti
atom_frac 0.3333333336581599 0.9166926154446554 0.2085023540279672 Ti
atom_frac 0.4999917511488198 0.7499917158912559 0.0416668246408987 Ti
atom_frac 0.3333333496035271 0.7500150085266193 0.1250852441294034 Ti
atom_frac 0.5000211750205629 0.9166743435056147 0.0273172668571578 O
atom_frac 0.3333333372115687 0.9169636028838029 0.2775340754457846 O
atom_frac 0.4994213076191794 0.7500055609831342 0.3063531538857119 O
atom_frac 0.3333333550365825 0.7500135018448342 0.0560099544278282 O
atom_frac 0.3333333447190074 0.7500101674127674 0.1941354227929711 O
atom_frac 0.5000059272764706 0.7500189953619979 0.1107312624509114 O
atom_frac 0.3333333523786250 0.9166766133249551 0.1394217950196585 O
atom_frac 0.4999476819995252 0.9166462723723253 0.2228920534808685 O
atom_frac 0.5009251761443614 0.9166060410750544 0.6251881025640720 Ti
atom_frac 0.3333333098735815 0.9141005892145490 0.5431559924328726 Ti
atom_frac 0.4987224697085975 0.7498019455530130 0.3754431224109653 Ti
atom_frac 0.3333333448828506 0.7499350743473672 0.4604841059688845 Ti
atom_frac 0.4983766836247158 0.9164824882198744 0.3611184625523314 O
atom_frac 0.3333333183802260 0.9173980675826988 0.6113855243282013 O
atom_frac 0.4990253326832637 0.7495997494288047 0.6386177534630915 O
atom_frac 0.3333333417372925 0.7476992565151078 0.3905066018798919 O
atom_frac 0.3333333275175869 0.7477854480484242 0.5295764139528136 O
atom_frac 0.4995996391753843 0.7490256509452380 0.4447153183750033 O
atom_frac 0.3333333513368090 0.9149531777094188 0.4740579477950292 O
atom_frac 0.5005323618591162 0.9169417839441798 0.5562741573533562 O
atom_frac 0.5000496998394344 0.9166706895463058 0.9582559623795688 Ti
atom_frac 0.3333333278859256 0.9165897869028939 0.8748912727899880 Ti
atom_frac 0.4998020859293450 0.7487222933592595 0.7078904882100181 Ti
atom_frac 0.3333333279470195 0.7500424963505137 0.7914230740797312 Ti
atom_frac 0.5007437063856958 0.9161290041429020 0.6939822884765566 O
atom_frac 0.3333333851872295 0.9166625853030300 0.9439210870566180 O
atom_frac 0.5000190710750581 0.7500059558508100 0.9726017884985612 O
atom_frac 0.3333333393304781 0.7501544604414750 0.7223919891469287 O
atom_frac 0.3333332950533226 0.7500038529504058 0.8605243950716114 O
atom_frac 0.5000059052911758 0.7494213888376402 0.7769798799489067 O
atom_frac 0.3333333135395995 0.9165921283538324 0.8058033086191574 O
atom_frac 0.5000098820663303 0.9166401698043122 0.8891918431910174 O
atom_frac 0.8333333203386788 0.2498219630188545 0.2917984206842218 Ti
atom_frac 0.6664942301805955 0.2499968174638262 0.2085239866360100 Ti
atom_frac 0.8333333238351195 0.0833333348752367 0.0416668345986377 Ti
atom_frac 0.6666698682460483 0.0833332967110374 0.1250981214392174 Ti
atom_frac 0.8333333291273539 0.2499849417839321 0.0273000754913958 O
atom_frac 0.6665147268695001 0.2500843035079085 0.2775979077137377 O
atom_frac 0.8333333438669644 0.0833331248032094 0.3060737926256652 O
atom_frac 0.6666817270645274 0.0833333410420097 0.0560335773037694 O
atom_frac 0.6665454828298667 0.0833332989384151 0.1941780992516753 O
atom_frac 0.8333333226085342 0.0833333172848928 0.1107467472744753 O
atom_frac 0.6666064479492853 0.2499789609094605 0.1394494244659425 O
atom_frac 0.8333333147022662 0.2499005279716001 0.2228221156971838 O
atom_frac 0.8333333133922044 0.2503291133450529 0.6250357540065027 Ti
atom_frac 0.6667700071606886 0.2498968216239739 0.5416668828515314 Ti
atom_frac 0.8333333441244212 0.0833330483640557 0.3753042297278938 Ti
atom_frac 0.6663377432203123 0.0833335526621503 0.4582973534122695 Ti
atom_frac 0.8333333455878528 0.2498196414142526 0.3608573165941945 O
atom_frac 0.6670212877205763 0.2504424308482822 0.6107988062403752 O
atom_frac 0.8333333192555595 0.0833333791312776 0.6392418385554078 O
atom_frac 0.6660379963471472 0.0833331063683553 0.3895377554314248 O
atom_frac 0.6668835309145286 0.0833335553741469 0.5274513188504375 O
atom_frac 0.8333333443747749 0.0833335944838108 0.4440912278907389 O
atom_frac 0.6662243916505010 0.2496454618812364 0.4725343354816549 O
atom_frac 0.8333333230372383 0.2497836435557107 0.5558823978171636 O
atom_frac 0.8333333051542796 0.2499967662390825 0.9582349000378902 Ti
atom_frac 0.6666697944946623 0.2501724772813651 0.8748097195391247 Ti
atom_frac 0.8333333255810290 0.0833333519493012 0.7080294287694191 Ti
atom_frac 0.6668445390620901 0.0833333349966885 0.7915346486834762 Ti
atom_frac 0.8333333331165239 0.2506288329940586 0.6937959090412925 O
atom_frac 0.6666877481968034 0.2500602501972410 0.9438836062052459 O
atom_frac 0.8333333539079518 0.0833333408175024 0.9725862831206877 O
atom_frac 0.6668467863246073 0.0833333846137786 0.7224763982333571 O
atom_frac 0.6667662264290168 0.0833333439203923 0.8605115975949701 O
atom_frac 0.8333333301892937 0.0833333563052338 0.7772592704770245 O
atom_frac 0.6665819620575495 0.2501519373664468 0.8057351543800291 O
atom_frac 0.8333333052589981 0.2501212139852299 0.8891555665786780 O
atom_frac 0.8333333204323805 0.5833330722284107 0.2918000142498590 Ti
atom_frac 0.6665898204623691 0.5833333327069200 0.2084423650408857 Ti
atom_frac 0.8333333737288242 0.4166581385954618 0.0416583842378290 Ti
atom_frac 0.6666706493230714 0.4166169159001907 0.1250770428536777 Ti
atom_frac 0.8333333293758224 0.5833333412646770 0.0273224049084887 O
atom_frac 0.6665920586123382 0.5833330592232820 0.2775297192359102 O
atom_frac 0.8333333401396263 0.4166703363375320 0.3061058742169913 O
atom_frac 0.6666743816961694 0.4166455955057650 0.0560164118391980 O
atom_frac 0.6666401347918378 0.4166567648052383 0.1941418171153570 O
atom_frac 0.8333332571304061 0.4166067289285232 0.1107328101160956 O
atom_frac 0.6666625204875584 0.5833332699372424 0.1394120069535540 O
atom_frac 0.8333333152570651 0.5833333253612185 0.2227998858003625 O
atom_frac 0.8333333149996326 0.5833333503254169 0.6229515908827499 Ti
atom_frac 0.6640998905961250 0.5833335921075705 0.5401778582975995 Ti
atom_frac 0.8333333476216129 0.4165351642256104 0.3751158583908380 Ti
atom_frac 0.6666060840981859 0.4157417960004001 0.4581450801166910 Ti
atom_frac 0.8333333499100655 0.5833331842036880 0.3609601646492412 O
atom_frac 0.6649522691622196 0.5833333896907779 0.6092745828576940 O
atom_frac 0.8333333196867976 0.4175264240077015 0.6386015734643065 O
atom_frac 0.6661290433231357 0.4159230450312563 0.3893514510203781 O
atom_frac 0.6669406846902600 0.4161344208391040 0.5270596078103241 O
atom_frac 0.8333333444588035 0.4157153749942399 0.4439611001600114 O
atom_frac 0.6673976638918204 0.5833335401683390 0.4719474013239623 O
atom_frac 0.8333333242829569 0.5833336019931200 0.5551449588219541 O
atom_frac 0.8333333024719333 0.5833333480358565 0.9582554083864886 Ti
atom_frac 0.6666926344971512 0.5833333139773581 0.8748313549699901 Ti
atom_frac 0.8333333448261749 0.4182161859539923 0.7078530361875127 Ti
atom_frac 0.6666421299049524 0.4167572843067999 0.7913053268469706 Ti
atom_frac 0.8333333326682323 0.5833334002437013 0.6931807606054649 O
atom_frac 0.6666766046725359 0.5833333413783278 0.9439112478512091 O
atom_frac 0.8333333091856767 0.4166636158444467 0.9725997085376070 O
atom_frac 0.6664825646819885 0.4182906212489121 0.7222151581473031 O
atom_frac 0.6666462654765484 0.4167190849459372 0.8604416092085898 O
atom_frac 0.8333333437822141 0.4166936559232015 0.7768850581440732 O
atom_frac 0.6669640222990880 0.5833333694963787 0.8057990024028806 O
atom_frac 0.8333333067901706 0.5833333664681233 0.8891969102304946 O
atom_frac 0.8333333148186430 0.9168441763544776 0.2917984202327685 Ti
atom_frac 0.6664942333921943 0.9166698213557231 0.2085239827741283 Ti
atom_frac 0.8333333238437733 0.7500085535265801 0.0416583876921887 Ti
atom_frac 0.6666706790716849 0.7500497393370534 0.1250770333594084 Ti
atom_frac 0.8333333467064027 0.9166817373538886 0.0273000806526102 O
atom_frac 0.6665147372710515 0.9165818169382607 0.2775979060617818 O
atom_frac 0.8333333432510593 0.7499959260542238 0.3061058730575792 O
atom_frac 0.6666743564983674 0.7500210943845770 0.0560164138167856 O
atom_frac 0.6666401512706049 0.7500098598900852 0.1941418289594043 O
atom_frac 0.8333333220704761 0.7500598967795006 0.1107328134883094 O
atom_frac 0.6666064363203352 0.9166876995715244 0.1394494221915303 O
atom_frac 0.8333333196660762 0.9167661664068147 0.2228221266818758 O
atom_frac 0.8333333144499296 0.9163375547431146 0.6250357500366146 Ti
atom_frac 0.6667700106159835 0.9167703787458752 0.5416668771747022 Ti
atom_frac 0.8333333454346584 0.7501309910999076 0.3751158635622243 Ti
atom_frac 0.6666060781612174 0.7509252913173470 0.4581450814582360 Ti
atom_frac 0.8333333438486105 0.9168466368029453 0.3608573221286436 O
atom_frac 0.6670212786064960 0.9162242652119826 0.6107988038520862 O
atom_frac 0.8333333180407866 0.7491403485066065 0.6386015796723726 O
atom_frac 0.6661290417898542 0.7507434614237730 0.3893514649768136 O
atom_frac 0.6669406422697791 0.7505326593511293 0.5270596083391899 O
atom_frac 0.8333333418826989 0.7509514217523169 0.4439611188763156 O
atom_frac 0.6662244398907523 0.9170216101303189 0.4725343321172596 O
atom_frac 0.8333333236542352 0.9168835153465075 0.5558823957412956 O
atom_frac 0.8333333438283282 0.9166699142467165 0.9582348921775743 Ti
atom_frac 0.6666697994721891 0.9164941747650458 0.8748097045381589 Ti
atom_frac 0.8333333246426979 0.7484505374059062 0.7078530412827957 Ti
atom_frac 0.6666421214395492 0.7499093927558425 0.7913053225354106 Ti
atom_frac 0.8333333295050067 0.9160379262185052 0.6937959110845390 O
atom_frac 0.6666876963191087 0.9166064389194776 0.9438836066636926 O
atom_frac 0.8333333541479236 0.7500030655594737 0.9725997084320605 O
atom_frac 0.6664825614156624 0.7483761213506261 0.7222151665199734 O
atom_frac 0.6666462606925921 0.7499475971818107 0.8604416069924875 O
atom_frac 0.8333333330410673 0.7499730553270163 0.7768850684289997 O
atom_frac 0.6665819695437136 0.9165147502745967 0.8057351529238622 O
atom_frac 0.8333333339088579 0.9165454471474542 0.8891555586375142 O
