#=======================================================
# FHI-aims file: C:\Users\amit_\OneDrive\PhD Python\DFTdevelopment\Battery\LiCoO2\geometry.in
# Created using the Atomic Simulation Environment (ASE)
# Wed May 22 10:03:47 2024
#=======================================================
lattice_vector 2.8146000000000000 0.0000000000000000 0.0000000000000000 
lattice_vector -1.4072999999999993 2.4375151014916812 0.0000000000000000 
lattice_vector 0.0000000000000000 0.0000000000000000 14.0536999999999992 
atom -0.0000000223025944 -0.0000000003908521 -0.0000000001141409 Li
atom 1.4072999779803461 0.8125050332008488 4.6845666659499523 Li
atom -0.0000000248765859 1.6250100672670076 9.3691333396754342 Li
atom 0.0000000638058858 0.0000000011277258 7.0268501870366666 Co
atom 1.4073000108164204 0.8125050284124257 11.7114169543820186 Co
atom 0.0000000579242299 1.6250100781744103 2.3422828415494865 Co
atom -0.0000000354835437 -0.0080841425192785 10.6916118676963041 O
atom 0.0000000032431155 0.0080841423249890 3.3620881031214518 O
atom 1.4072999949281930 0.8044208855890012 1.3224783998881815 O
atom 1.4072999801059902 0.8205891768933848 8.0466548924846357 O
atom 0.0000000124711298 1.6169259200123720 6.0070451829199998 O
atom -0.0000000186125858 1.6330942158746904 12.7312215654099994 O
