#=======================================================
# FHI-aims file: C:\Users\amit_\OneDrive\PhD Python\DFTdevelopment\FinalBayesianTesting\Defectvalidation\self-consistent projectors\HybridSP\SCF v3 for Archer2\Anatase\OV\geometry.in
# Created using the Atomic Simulation Environment (ASE)
# Mon Jul 29 11:17:44 2024
#=======================================================
lattice_vector 11.3550000000000004 0.0000000000000000 0.0000000000000000 
lattice_vector 0.0000000000000000 11.3550000000000004 0.0000000000000000 
lattice_vector 0.0000000000000000 0.0000000000000000 28.5398999999999958 
atom 1.8929743013007412 2.8391231433935085 8.3268684016339289 Ti
atom 0.0002442011578973 2.8382527106136397 5.9472319682692723 Ti
atom 1.8924860872137628 0.9462504592237182 1.1888150845233370 Ti
atom -0.0000020293488926 0.9462498542392418 3.5671334204401388 Ti
atom 1.8925631324167134 2.8386630465144340 0.7812049239246371 O
atom 0.0002125689642983 2.8371562836802307 7.9184155740952038 O
atom 1.8903027759972668 0.9462498582345087 8.7389202516917557 O
atom -0.0000149274795366 0.9462502926925069 1.5976921234867811 O
atom 0.0000233268972815 0.9462501640776962 5.5391040601352932 O
atom 1.8925645860136830 0.9462497771867980 3.1596814097828676 O
atom 0.0005216041691350 2.8379291527853496 3.9764578309034877 O
atom 1.8927617415072013 2.8382444590322895 6.3571540677672047 O
atom 1.8978182309420268 2.8403769818880198 17.8379788780293538 Ti
atom 0.0029398330431725 2.8447859987794959 15.4564643574925693 Ti
atom 1.8960525979598646 0.9462501303223877 10.7035100942194141 Ti
atom 0.0051127880999529 0.9462499483764408 13.0843632615024568 Ti
atom 1.9013083873941521 2.8434728522401280 10.3013827619301104 O
atom 0.0028903408466287 2.8327107491575196 17.4220673035958136 O
atom 1.8986216922770345 0.9462499759643253 18.2405299228632387 O
atom 0.0021206139047955 0.9462500914749179 11.1147379152610668 O
atom 0.0077840192874471 0.9462499379103854 15.0477443118455572 O
atom 1.8980899348052704 0.9462499596106477 12.6780192162638716 O
atom 0.0286186865624387 2.8466999595801101 13.4831428057861498 O
atom 1.9005656152390979 2.8665989703095698 15.8582244905497873 O
atom 1.8926477446767913 2.8386677591941663 27.3504541333362070 Ti
atom -0.0000065191049799 2.8381569832101401 24.9728475473640863 Ti
atom 1.8929011626368746 0.9462499461722630 20.2141137987480732 Ti
atom 0.0005588380102382 0.9462499925941734 22.5934425591017742 Ti
atom 1.8941910780435423 2.8373512655386692 19.8049963173608852 O
atom 0.0000658132748657 2.8385623776506246 26.9431556204216598 O
atom 1.8925883943731965 0.9462500943869545 27.7588040308977675 O
atom 0.0005851924580026 0.9462499434748547 20.6228347690099092 O
atom 0.0003017282480245 0.9462499616662330 24.5647205231042278 O
atom 1.8926178787592098 0.9462500826856227 22.1844405385920318 O
atom -0.0003589443852148 2.8380761169254858 23.0028540745118661 O
atom 1.8925466576471772 2.8386047465115087 25.3805247869226527 O
atom 1.8891357618030458 6.6237499871553149 8.3097199164903177 Ti
atom -0.0048739355882219 6.6237497717192912 5.9395470703396480 Ti
atom 1.8925178656403532 4.7312949807800102 1.1884688352882451 Ti
atom 0.0000683583776503 4.7292633414907028 3.5664595405760071 Ti
atom 1.8925597206108555 6.6237498996533803 0.7812477265054314 O
atom -0.0026737051557711 6.6237500469813373 7.9115130309660859 O
atom 1.8913025374924637 4.7311568389776086 8.7254745063213921 O
atom 0.0000768491099690 4.7306691829305416 1.5968859254594145 O
atom -0.0007477895232249 4.7303214593589225 5.5370296964872452 O
atom 1.8924231399044908 4.7306803327027236 3.1595599013285027 O
atom -0.0022727395476515 6.6237497192420260 3.9730597492389257 O
atom 1.8906034398910279 6.6237502604533800 6.3456139410848031 O
atom 1.8957296265308523 6.6237498978303151 17.8450625255216977 Ti
atom -0.0046647555681716 6.6237499881313093 15.4763793939699852 Ti
atom 1.8953922050811878 4.7417418334180992 10.6935674191572669 Ti
atom 0.0003492311531899 4.7436364629096337 13.0813105130014069 Ti
atom 1.8659215814270205 6.6237497763407447 10.2762303283510352 O
atom -0.0051512656109528 6.6237499475373545 17.4408891609781449 O
atom 1.8883386076445798 4.7303075453898806 18.2496537598901512 O
atom 0.0020326668278528 4.7117681040340313 11.1166708473220091 O
atom -0.0034316056302517 4.7330673577568314 15.0544899966906112 O
atom 1.9063885326943901 4.8467565596260185 12.6751121677337757 O
atom -0.0370328837302295 6.6237499822402688 13.4989646279349422 O
atom 1.8855990618105025 6.6237499721394206 15.8808897617725044 O
atom 1.8926160853681815 6.6237501396332288 27.3502372749096878 Ti
atom 0.0000512001187167 6.6237501280527615 24.9724022486302886 Ti
atom 1.8911047345342211 4.7325087568428810 20.2186845243928595 Ti
atom -0.0007304705511857 4.7307271341458952 22.5957855505601444 Ti
atom 1.8817493767787206 6.6237499315132693 19.8196717820823416 O
atom 0.0000536827474661 6.6237500788708479 26.9428723028048118 O
atom 1.8925602582390511 4.7312709174033394 27.7587014680331805 O
atom -0.0011148885978615 4.7245790653419339 20.6258392264520865 O
atom -0.0003272633015449 4.7309659720533217 24.5654834736210468 O
atom 1.8921782258778379 4.7298030947470489 22.1880860878530193 O
atom 0.0003224396514908 6.6237501149154427 23.0024591923060981 O
atom 1.8925096168651099 6.6237498139757847 25.3803686327743669 O
atom 1.8929742693058673 10.4083768906436358 8.3268683179516625 Ti
atom 0.0002438001425385 10.4092475144208461 5.9472324321056638 Ti
atom 1.8925174283629247 8.5162045852717032 1.1884687484799130 Ti
atom 0.0000686741733057 8.5182367911038703 3.5664588111257878 Ti
atom 1.8925629326523583 10.4088370777352210 0.7812049644183960 O
atom 0.0002124561685248 10.4103436722153706 7.9184159463490937 O
atom 1.8913021556786234 8.5163433098106367 8.7254745917826497 O
atom 0.0000768192936768 8.5168305465243908 1.5968858454525920 O
atom -0.0007480847197756 8.5171783640056571 5.5370294836425940 O
atom 1.8924235450535665 8.5168198841669689 3.1595599805804846 O
atom 0.0005218794498739 10.4095711232047456 3.9764576730587091 O
atom 1.8927622691263473 10.4092552684696074 6.3571544738579071 O
atom 1.8978182331163773 10.4071229245406673 17.8379788721518757 Ti
atom 0.0029398081703479 10.4027139377562374 15.4564642821640597 Ti
atom 1.8953920874752213 8.5057580985312278 10.6935674785450932 Ti
atom 0.0003491395374838 8.5038635169350254 13.0813105713918603 Ti
atom 1.9013084424129794 10.4040273743917187 10.3013832742165494 O
atom 0.0028903266400074 10.4147891516126112 17.4220672845893390 O
atom 1.8883386286441630 8.5171923260253930 18.2496537509201460 O
atom 0.0020326653762805 8.5357318313906472 11.1166708692735892 O
atom -0.0034316424235360 8.5144326461425219 15.0544898950261921 O
atom 1.9063884984836876 8.4007434373076340 12.6751121922256669 O
atom 0.0286185604674932 10.4007999916985021 13.4831427487331812 O
atom 1.9005656119959793 10.3809010553201837 15.8582244833293160 O
atom 1.8926477156270669 10.4088321168738727 27.3504542974491969 Ti
atom -0.0000064292431372 10.4093431058235009 24.9728476310960836 Ti
atom 1.8911047495141566 8.5149910730992744 20.2186843968086229 Ti
atom -0.0007304578562026 8.5167731559067299 22.5957852596414099 Ti
atom 1.8941911025542713 10.4101486491717292 19.8049963249520111 O
atom 0.0000659536387281 10.4089375838308946 26.9431554717975885 O
atom 1.8925604357948338 8.5162290147518700 27.7587012589353002 O
atom -0.0011148920831362 8.5229208697133565 20.6258391583663858 O
atom -0.0003272099627599 8.5165342504995660 24.5654834305319518 O
atom 1.8921782345994946 8.5176969752638332 22.1880859291871104 O
atom -0.0003588981002501 10.4094239516682894 23.0028539809390793 O
atom 1.8925466606982939 10.4088955950930924 25.3805246257784418 O
atom 5.6770260859861148 2.8391231601398439 8.3268682736388762 Ti
atom 3.7849996213625645 2.8381353101075995 5.9467946555153848 Ti
atom 5.6775139287781231 0.9462500149605289 1.1888150107456008 Ti
atom 3.7850002262513356 0.9462501573249901 3.5669360768816580 Ti
atom 5.6774370553811702 2.8386630433515214 0.7812047952402371 O
atom 3.7850002614060734 2.8350624412922509 7.9181748755472201 O
atom 5.6796972470704814 0.9462503321446923 8.7389202370130654 O
atom 3.7850001896023460 0.9462500158916162 1.5974963339723147 O
atom 3.7849997805659727 0.9462501433768921 5.5386940436765677 O
atom 5.6774352582983783 0.9462500130975178 3.1596813560882935 O
atom 3.7850002335363260 2.8382097621019824 3.9764723666732587 O
atom 5.6772381916539834 2.8382444562977374 6.3571542856822898 O
atom 5.6721817660188298 2.8403769717263323 17.8379789713979626 Ti
atom 3.7849999941138304 2.8561669615435465 15.4429450592416408 Ti
atom 5.6739474144195272 0.9462502763710063 10.7035102113054190 Ti
atom 3.7850000750539081 0.9462499514842669 13.0914016224681955 Ti
atom 5.6686914693506445 2.8434728620306302 10.3013828997764598 O
atom 3.7849999910580272 2.8466220003700795 17.4234516409919067 O
atom 5.6713783085282667 0.9462499669881721 18.2405299853218636 O
atom 3.7850000805644677 0.9462500881138048 11.1154381121082899 O
atom 3.7850000213845028 0.9462500279303688 15.0704851787756056 O
atom 5.6719101692964680 0.9462500636311771 12.6780192243647551 O
atom 3.7849998499961663 2.8329530918056274 13.4933764432804235 O
atom 5.6694344079248005 2.8665989898707536 15.8582245000779416 O
atom 5.6773522986754603 2.8386677613768629 27.3504540199916484 Ti
atom 3.7850000453262918 2.8385771680341061 24.9721571357949230 Ti
atom 5.6770987604232088 0.9462499137358832 20.2141139196155137 Ti
atom 3.7849999647070294 0.9462499078263793 22.5933676362012790 Ti
atom 5.6758088550889658 2.8373512593695542 19.8049964070527764 O
atom 3.7850002025236784 2.8387097771078822 26.9428302399030386 O
atom 5.6774116613788292 0.9462501777268291 27.7588039622797353 O
atom 3.7849999997340884 0.9462498871027138 20.6233595662675455 O
atom 3.7849998680889110 0.9462499422185369 24.5641850044294507 O
atom 5.6773820825058454 0.9462499255295949 22.1844405316430731 O
atom 3.7850001516862783 2.8384849560149656 23.0020301449364943 O
atom 5.6774533202473458 2.8386047670944450 25.3805246520672441 O
atom 5.6808643594760282 6.6237501124446743 8.3097200329638188 Ti
atom 3.7850000975853835 6.6237499501359265 5.9411467445261943 Ti
atom 5.6774821461255049 4.7312954308323105 1.1884687663339171 Ti
atom 3.7850002259141799 4.7301151951766238 3.5666832521237293 Ti
atom 5.6774400121521040 6.6237501108503842 0.7812476949381697 O
atom 3.7850001785242888 6.6237501644396435 7.9106188301965918 O
atom 5.6786974895761668 4.7311563459450694 8.7254745031521779 O
atom 3.7850001812220473 4.7306718063180284 1.5970994211330733 O
atom 3.7849997854898989 4.7305877608389064 5.5375848916280042 O
atom 5.6775767187747972 4.7306800933495019 3.1595598437896606 O
atom 3.7849999670936549 6.6237499066341625 3.9731364975317058 O
atom 5.6793967037436559 6.6237498246167483 6.3456140621592461 O
atom 5.6742703149070648 6.6237498880635295 17.8450625858033654 Ti
atom 3.7849999897169395 6.6237500786766788 15.4888919677369401 Ti
atom 5.6746077737133902 4.7417416405558068 10.6935675923316627 Ti
atom 3.7850000269460367 4.6968268019541153 13.0663998227998022 Ti
atom 5.7040783404304527 6.6237499309220356 10.2762301343118203 O
atom 3.7849999860755714 6.6237499756459393 17.4805867230969483 O
atom 5.6816613683859112 4.7303075541733062 18.2496538159691681 O
atom 3.7850000553575125 4.7637653354847460 11.0820248621350412 O
atom 3.7849999646197787 4.7903884248026563 14.9956429397083557 O
atom 5.6636115387888673 4.8467564966343470 12.6751121640936777 O
atom 5.6844009134761322 6.6237500125559210 15.8808897887543150 O
atom 5.6773840738302228 6.6237498276777655 27.3502369014319981 Ti
atom 3.7849998782852126 6.6237500819212549 24.9720664238465524 Ti
atom 5.6788952065778329 4.7325087887688015 20.2186846117540888 Ti
atom 3.7849999784836799 4.7311378895875498 22.5943677428213583 Ti
atom 5.6882506059585847 6.6237499225412613 19.8196718124196352 O
atom 3.7849997371202062 6.6237502890382256 26.9427825924519126 O
atom 5.6774398059902005 4.7312708403987180 27.7587013978418682 O
atom 3.7849999964961776 4.7323082193168409 20.6245744298068239 O
atom 3.7849998576329620 4.7311381957496392 24.5648645574900399 O
atom 5.6778217406619520 4.7298032651067636 22.1880860774336028 O
atom 3.7850000466714269 6.6237500620208243 23.0022716319803919 O
atom 5.6774905137745337 6.6237498631902714 25.3803688135040666 O
atom 5.6770258144457184 10.4083767658509849 8.3268684089237368 Ti
atom 3.7850000804663462 10.4093647068528021 5.9467947757903170 Ti
atom 5.6774823520582469 8.5162045777128181 1.1884695333808046 Ti
atom 3.7850003494121651 8.5173846532354549 3.5666834596703225 Ti
atom 5.6774368086201248 10.4088368712370691 0.7812049299453364 O
atom 3.7850001723815190 10.4124373948807474 7.9181753471117924 O
atom 5.6786977005586028 8.5163433214363824 8.7254743101444898 O
atom 3.7849999164310257 8.5168281992645376 1.5970998113998065 O
atom 3.7849999057421697 8.5169120907526370 5.5375852099119536 O
atom 5.6775769175337336 8.5168198951240299 3.1595601413277925 O
atom 3.7849999638123295 10.4092903284480744 3.9764722566789685 O
atom 5.6772378503663656 10.4092557109671020 6.3571545986757689 O
atom 5.6721817717799885 10.4071229400884313 17.8379789688544008 Ti
atom 3.7850000192655591 10.3913330919646629 15.4429449806667183 Ti
atom 5.6746077722555439 8.5057580919436457 10.6935674483951821 Ti
atom 3.7850000633807572 8.5506729737974023 13.0663996677770662 Ti
atom 5.6686914787338090 10.4040272147466784 10.3013830431287996 O
atom 3.7850000038465357 10.4008779006300163 17.4234516577454777 O
atom 5.6816613895560550 8.5171923264232134 18.2496537714967459 O
atom 3.7849999794773868 8.4837345963494339 11.0820247343382530 O
atom 3.7849999649817110 8.4571116195491225 14.9956429765422321 O
atom 5.6636114486351374 8.4007434142421697 12.6751119495349229 O
atom 3.7850000460647890 10.4145469674990832 13.4933764660570130 O
atom 5.6694344010159448 10.3809009901435303 15.8582245457679569 O
atom 5.6773524433009683 10.4088324302504009 27.3504539365910730 Ti
atom 3.7849998845795150 10.4089228403239282 24.9721576214519061 Ti
atom 5.6788952342059194 8.5149910724545244 20.2186844055830015 Ti
atom 3.7850000302400293 8.5163623688510217 22.5943675682322898 Ti
atom 5.6758088826838700 10.4101486629059146 19.8049963850015409 O
atom 3.7849997402137556 10.4087899328231632 26.9428303034670193 O
atom 5.6774399453917885 8.5162290091625401 27.7587014550880049 O
atom 3.7850000114541773 8.5151917239103501 20.6245742786085451 O
atom 3.7850001123898860 8.5163619753096214 24.5648645787318252 O
atom 5.6778217583040202 8.5176969642031644 22.1880859327157225 O
atom 3.7850000493453240 10.4090151031212450 23.0020301071532529 O
atom 5.6774534737464872 10.4088955265703316 25.3805248034557209 O
atom 9.4624995497309410 2.8370812121839619 8.3256491960586398 Ti
atom 7.5697561708748262 2.8382526983369680 5.9472327953581701 Ti
atom 9.4624999783913015 0.9462504160122346 1.1888211669050432 Ti
atom 7.5700018152274691 0.9462496958375712 3.5671332438614440 Ti
atom 9.4624998117053050 2.8386679586128318 0.7812579126224561 O
atom 7.5697871561421506 2.8371562983915406 7.9184156578939042 O
atom 9.4624999754443149 0.9462501870229127 8.7353752798369246 O
atom 7.5700147406264522 0.9462502135740182 1.5976923366306568 O
atom 7.5699768934394225 0.9462504436677329 5.5391038278986580 O
atom 9.4625001597957255 0.9462497642110758 3.1599199562696825 O
atom 7.5694781615274582 2.8379291579870567 3.9764578464210230 O
atom 9.4625000549366511 2.8387581167824507 6.3559536117911355 O
atom 9.4625000335384115 2.8366623469709098 17.8320157006279985 Ti
atom 7.5670602408318377 2.8447859985362145 15.4564643808520525 Ti
atom 9.4625000155103596 0.9462501861878604 10.7082915340936680 Ti
atom 7.5648871529162358 0.9462499052033277 13.0843634471374894 Ti
atom 9.4625001413498104 2.8359629008240890 10.2963711225242900 O
atom 7.5671096927124850 2.8327107543856731 17.4220673095484493 O
atom 9.4625000249733642 0.9462499753119721 18.2418592956605998 O
atom 7.5678793119775092 0.9462498258691066 11.1147380291040143 O
atom 7.5622160124987197 0.9462499316385314 15.0477442983528675 O
atom 9.4624999192591730 0.9462499730394265 12.6827171683339603 O
atom 7.5413814629084586 2.8466999591028488 13.4831428134871505 O
atom 9.4625000059111493 2.8388557416175630 15.8595406208916927 O
atom 9.4624999372589471 2.8387511318526268 27.3505838891499629 Ti
atom 7.5700064760130212 2.8381569850180783 24.9728475137894108 Ti
atom 9.4625000454914812 0.9462499489918395 20.2156104085563335 Ti
atom 7.5694412000013411 0.9462499810769192 22.5934423911974598 Ti
atom 9.4625000711258132 2.8358849486796265 19.8043304086990872 O
atom 7.5699339841998716 2.8385623718772166 26.9431554349105049 O
atom 9.4624999463951482 0.9462503059585241 27.7589258233783127 O
atom 7.5694148078750914 0.9462499667884209 20.6228348042080185 O
atom 7.5696984101730687 0.9462500398630971 24.5647205528338191 O
atom 9.4625000380560547 0.9462500331366606 22.1847046036031834 O
atom 7.5703587930194383 2.8380761170115361 23.0028539925460223 O
atom 9.4625000229261573 2.8383376438422672 25.3807547152743069 O
atom 9.4624999251032964 6.6237499738151868 8.3279480039236233 Ti
atom 7.5748738283746988 6.6237494921680371 5.9395469753558476 Ti
atom 9.4624999780318593 4.7313106379714931 1.1886127611475525 Ti
atom 7.5699314294657309 4.7292635225474164 3.5664593754873901 Ti
atom 9.4625002652044063 6.6237504531986566 0.7813367901349084 O
atom 7.5726735329799286 6.6237503758837715 7.9115127959389797 O
atom 9.4624999914189072 4.7312076346744920 8.7363714566936324 O
atom 7.5699229729379551 4.7306692662341492 1.5968861406911627 O
atom 7.5707480065496817 4.7303211859651588 5.5370294681002443 O
atom 9.4625001462551115 4.7294732250612359 3.1592595715286813 O
atom 7.5722727798807377 6.6237503112100580 3.9730594855825614 O
atom 9.4624998705812118 6.6237500521523263 6.3520029089729526 O
atom 9.4624999978645068 6.6237499347141968 17.8497701897742829 Ti
atom 7.5746647427371849 6.6237500242688370 15.4763794776173054 Ti
atom 9.4625000184831549 4.7265436251822264 10.7067224259172917 Ti
atom 7.5696506943030970 4.7436365161401053 13.0813106757630795 Ti
atom 9.4625000764243801 6.6237497872855995 10.3003362345392997 O
atom 7.5751512541509731 6.6237499993660078 17.4408891867747968 O
atom 9.4625000271464614 4.7272136626099321 18.2477757347617811 O
atom 7.5679672617074321 4.7117683561353569 11.1166709609306444 O
atom 7.5734316436420226 4.7330673581741038 15.0544899941082519 O
atom 9.4624999189057046 4.7293914874581331 12.6750285863175254 O
atom 7.6070328356990586 6.6237500088535475 13.4989646232011484 O
atom 9.4624999990160532 6.6237500005314551 15.8789707026500206 O
atom 9.4624998280060808 6.6237501073477238 27.3502238007694380 Ti
atom 7.5699489254247503 6.6237500178177449 24.9724023665140216 Ti
atom 9.4625000495092983 4.7267287926415156 20.2167608919136264 Ti
atom 7.5707304930755512 4.7307271433653568 22.5957853722022506 Ti
atom 9.4624999986677611 6.6237499394135124 19.8149704069274755 O
atom 7.5699465801004147 6.6237498839965232 26.9428723838841968 O
atom 9.4624999381014021 4.7312806094914190 27.7586682433826333 O
atom 7.5711148889934430 4.7245790386308766 20.6258392471657395 O
atom 7.5703274103809450 4.7309658947623765 24.5654834934689248 O
atom 9.4625000338375376 4.7306850208437892 22.1884431779350528 O
atom 7.5696775127075178 6.6237500344732236 23.0024593864953992 O
atom 9.4624998701954386 6.6237499366617341 25.3804352370230184 O
atom 9.4624998905209807 10.4104188355871408 8.3256491383685525 Ti
atom 7.5697561324317277 10.4092477893319728 5.9472323611647662 Ti
atom 9.4625002087596819 8.5161889871093788 1.1886130243684130 Ti
atom 7.5699309880506203 8.5182367808336110 3.5664586190326184 Ti
atom 9.4625002554060398 10.4088316278511961 0.7812577293111648 O
atom 7.5697873710461350 10.4103433469565925 7.9184157301151652 O
atom 9.4625001390864458 8.5162921901475723 8.7363713416916724 O
atom 7.5699232666259411 8.5168305495353955 1.5968859757689258 O
atom 7.5707481869688973 8.5171783619001111 5.5370292885297037 O
atom 9.4624995423001401 8.5180270101873283 3.1592595814819031 O
atom 7.5694781641542903 10.4095705243269343 3.9764574306930278 O
atom 9.4624998789801555 10.4087418151599653 6.3559536991477570 O
atom 9.4625000224547637 10.4108376187507776 17.8320156624381561 Ti
atom 7.5670602367463511 10.4027138861794040 15.4564643797842347 Ti
atom 9.4625001093242727 8.5209561954609168 10.7067220749519638 Ti
atom 7.5696507825840369 8.5038635184101299 13.0813103909486141 Ti
atom 9.4625000878177339 10.4115373321734825 10.2963712355567871 O
atom 7.5671096929783435 10.4147890937953651 17.4220673308336522 O
atom 9.4624999829596437 8.5202862486568236 18.2477757069066904 O
atom 7.5679673139844912 8.5357318240713340 11.1166708668695264 O
atom 7.5734316786802971 8.5144326367967285 15.0544899661575577 O
atom 9.4624999861834649 8.5181084489272454 12.6750285840390777 O
atom 7.5413813940874865 10.4007999588456848 13.4831427525795551 O
atom 9.4625000162452899 10.4086442132884116 15.8595406336200693 O
atom 9.4624998210030018 10.4087487887100405 27.3505838609148064 Ti
atom 7.5700065597578954 10.4093432107433514 24.9728477455301245 Ti
atom 9.4625000058273354 8.5207710887343886 20.2167607580168784 Ti
atom 7.5707304322775038 8.5167731522660297 22.5957854406111913 Ti
atom 9.4625000180061072 10.4116150033947648 19.8043304020615523 O
atom 7.5699343063570401 10.4089377842631041 26.9431555552576896 O
atom 9.4624996186052996 8.5162191296864389 27.7586679311013036 O
atom 7.5711148786152735 8.5229208747969416 20.6258391234013345 O
atom 7.5703271032041126 8.5165342489986440 24.5654835854012923 O
atom 9.4625000076397026 8.5168151299226675 22.1884430743754812 O
atom 7.5703588508475699 10.4094240313029562 23.0028541796201935 O
atom 9.4624998676593428 10.4091626174448315 25.3807544870817630 O
