#=======================================================
# FHI-aims file: ./geometry.in
# Created using the Atomic Simulation Environment (ASE)
# Wed Jul 17 01:41:09 2024
#=======================================================
lattice_vector 11.3550000000000004 0.0000000000000000 0.0000000000000000 
lattice_vector 0.0000000000000000 11.3550000000000004 0.0000000000000000 
lattice_vector 0.0000000000000000 0.0000000000000000 28.5398999999999958 
atom_frac 0.1667084369265294 0.2500328615934397 0.2917623538146220 Ti
atom_frac 0.0000215060464903 0.2499562052499903 0.2083830696067356 Ti
atom_frac 0.1666654414102829 0.0833333737757568 0.0416544936921060 Ti
atom_frac -0.0000001787185286 0.0833333204966307 0.1249875935248596 Ti
atom_frac 0.1666722265448448 0.2499923422733979 0.0273723777562163 O
atom_frac 0.0000187202962834 0.2498596462950445 0.2774507119539734 O
atom_frac 0.1664731638923176 0.0833333208484816 0.3062001006202459 O
atom_frac -0.0000013146173084 0.0833333591098641 0.0559809993548254 O
atom_frac 0.0000020543282502 0.0833333477831525 0.1940828124883162 O
atom_frac 0.1666723545586687 0.0833333137108585 0.1107110189518137 O
atom_frac 0.0000459360783034 0.2499277105050946 0.1393297744877693 O
atom_frac 0.1666897174378865 0.2499554785585459 0.2227461927956021 O
atom_frac 0.1671350269433753 0.2501432833014548 0.6250189691634994 Ti
atom_frac 0.0002589020733749 0.2505315718872299 0.5415738792880344 Ti
atom_frac 0.1669795330655979 0.0833333448104260 0.3750367063030850 Ti
atom_frac 0.0004502675561385 0.0833333287870049 0.4584586232433351 Ti
atom_frac 0.1674423943103612 0.2504159271017286 0.3609467013524964 O
atom_frac 0.0002545434475234 0.2494681417135640 0.6104459827678379 O
atom_frac 0.1672057853172201 0.0833333312165852 0.6391238204360646 O
atom_frac 0.0001867559581502 0.0833333413892486 0.3894455802319233 O
atom_frac 0.0006855146884586 0.0833333278652915 0.5272528744615629 O
atom_frac 0.1671589550687160 0.0833333297763670 0.4442208702996112 O
atom_frac 0.0025203598910118 0.2507001285407406 0.4724313261709450 O
atom_frac 0.1673769806463318 0.2524525733429828 0.5556510180676804 O
atom_frac 0.1666796780869037 0.2499927573046381 0.9583234045436814 Ti
atom_frac -0.0000005741175676 0.2499477748313641 0.8750152434789221 Ti
atom_frac 0.1667019958288749 0.0833333285928897 0.7082755650422068 Ti
atom_frac 0.0000492151484138 0.0833333326811249 0.7916440687984814 Ti
atom_frac 0.1668155947198188 0.2498768177488920 0.6939406345979099 O
atom_frac 0.0000057959731278 0.2499834766755283 0.9440522083266467 O
atom_frac 0.1666744512878200 0.0833333416457027 0.9726314398753244 O
atom_frac 0.0000515361037431 0.0833333283553373 0.7225966022659475 O
atom_frac 0.0000265722807595 0.0833333299573961 0.8607150173302721 O
atom_frac 0.1666770478872047 0.0833333406152023 0.7773131839492092 O
atom_frac -0.0000316111303580 0.2499406531858640 0.8059893018024544 O
atom_frac 0.1666707756624550 0.2499872079710707 0.8892997097720264 O
atom_frac 0.1663703885339538 0.5833333322021412 0.2911614937855535 Ti
atom_frac -0.0004292325485004 0.5833333132293519 0.2081138010413368 Ti
atom_frac 0.1666682400387805 0.4166706279859101 0.0416423615810933 Ti
atom_frac 0.0000060201125187 0.4164917077490711 0.1249639816739375 Ti
atom_frac 0.1666719260775742 0.5833333244961144 0.0273738775015130 O
atom_frac -0.0002354650071133 0.5833333374708355 0.2772088560564714 O
atom_frac 0.1665612098187991 0.4166584622613481 0.3057289796502929 O
atom_frac 0.0000067678652549 0.4166155158899640 0.0559527512520862 O
atom_frac -0.0000658555282453 0.4165848929422212 0.1940101295550176 O
atom_frac 0.1666598978339490 0.4166164978161799 0.1107067614577663 O
atom_frac -0.0002001531966228 0.5833333086078402 0.1392107102421146 O
atom_frac 0.1664996424386638 0.5833333562706631 0.2223418421607926 O
atom_frac 0.1669510899630869 0.5833333243355627 0.6252671707161448 Ti
atom_frac -0.0004108107061358 0.5833333322880941 0.5422716755829554 Ti
atom_frac 0.1669213742916061 0.4175906502349713 0.3746883282407180 Ti
atom_frac 0.0000307557158247 0.4177575044394217 0.4583516590107677 Ti
atom_frac 0.1643259869156337 0.5833333136363491 0.3600653936541837 O
atom_frac -0.0004536561524397 0.5833333287131091 0.6111054755264786 O
atom_frac 0.1663001856137895 0.4165836675816715 0.6394435075066890 O
atom_frac 0.0001790107290051 0.4149509558814646 0.3895133075911973 O
atom_frac -0.0003022109758038 0.4168267157865989 0.5274892342541709 O
atom_frac 0.1678897871153139 0.4268389748679893 0.4441190111995409 O
atom_frac -0.0032613724112928 0.5833333317692883 0.4729857016995485 O
atom_frac 0.1660589222202116 0.5833333308797376 0.5564451789169726 O
atom_frac 0.1666768899487610 0.5833333456304032 0.9583158061138859 Ti
atom_frac 0.0000045090373154 0.5833333446105470 0.8749996408056894 Ti
atom_frac 0.1665437899193501 0.4167775215185275 0.7084357171676448 Ti
atom_frac -0.0000643302995320 0.4166206194756402 0.7917261640916804 Ti
atom_frac 0.1657198922746561 0.5833333273019171 0.6944548432924553 O
atom_frac 0.0000047276748099 0.5833333402792468 0.9440422812555340 O
atom_frac 0.1666719734248394 0.4166685087981805 0.9726278462094536 O
atom_frac -0.0000981848170728 0.4160791779253134 0.7227018744442724 O
atom_frac -0.0000288210745526 0.4166416531971221 0.8607417500979699 O
atom_frac 0.1666383290072952 0.4165392421617832 0.7774409191291148 O
atom_frac 0.0000283962704968 0.5833333434535836 0.8059754656570661 O
atom_frac 0.1666675135944614 0.5833333169507515 0.8892942383391103 O
atom_frac 0.1667084341088390 0.9166338080707737 0.2917623508825071 Ti
atom_frac 0.0000214707302984 0.9167104812347727 0.2083830858589436 Ti
atom_frac 0.1666682015290995 0.7499960004642626 0.0416423585394452 Ti
atom_frac 0.0000060479236729 0.7501749705947925 0.1249639561149755 Ti
atom_frac 0.1666722089522112 0.9166743353355543 0.0273723791750635 O
atom_frac 0.0000187103627058 0.9168070164874830 0.2774507249972528 O
atom_frac 0.1665611761936260 0.7500082175086425 0.3057289826447412 O
atom_frac 0.0000067652394255 0.7500511269506288 0.0559527484487539 O
atom_frac -0.0000658815252995 0.7500817581687059 0.1940101220972251 O
atom_frac 0.1666599335141846 0.7500501879495348 0.1107067642346499 O
atom_frac 0.0000459603214332 0.9167389804671726 0.1393297689570990 O
atom_frac 0.1666897639036853 0.9167111641100489 0.2227462070244783 O
atom_frac 0.1671350271348637 0.9165233751246734 0.6250189689575605 Ti
atom_frac 0.0002588998829016 0.9161350891903335 0.5415738766486239 Ti
atom_frac 0.1669213639344096 0.7490760104386813 0.3746883303215882 Ti
atom_frac 0.0000307476475107 0.7489091604522259 0.4583516610566912 Ti
atom_frac 0.1674423991557005 0.9162507595237092 0.3609467193023294 O
atom_frac 0.0002545421963899 0.9171985162142325 0.6104459821018764 O
atom_frac 0.1663001874631583 0.7500829877609329 0.6394435071923921 O
atom_frac 0.0001790106011696 0.7517157050982516 0.3895133083603514 O
atom_frac -0.0003022142160754 0.7498399512234717 0.5274892306919854 O
atom_frac 0.1678897841024824 0.7398276915286335 0.4441190120577041 O
atom_frac 0.0025203487862169 0.9159665338351828 0.4724313241718851 O
atom_frac 0.1673769803607203 0.9142140955808175 0.5556510178146846 O
atom_frac 0.1666796755285836 0.9166738984477210 0.9583234102939815 Ti
atom_frac -0.0000005662037109 0.9167188996762219 0.8750152464127796 Ti
atom_frac 0.1665437912385871 0.7498891301716665 0.7084357126972634 Ti
atom_frac -0.0000643291815238 0.7500460727350708 0.7917261538982763 Ti
atom_frac 0.1668155968784034 0.9167898414065810 0.6939406348638928 O
atom_frac 0.0000058083345423 0.9166831865989338 0.9440522031190577 O
atom_frac 0.1666719890616322 0.7499981518936036 0.9726278388829430 O
atom_frac -0.0000981851240102 0.7505874830218719 0.7227018720586403 O
atom_frac -0.0000288163771695 0.7500250330690942 0.8607417485881855 O
atom_frac 0.1666383297753848 0.7501274306705268 0.7774409135696732 O
atom_frac -0.0000316070541832 0.9167260195216458 0.8059892985237889 O
atom_frac 0.1666707759311575 0.9166794887796645 0.8892997041257484 O
atom_frac 0.4999582638473020 0.2500328630682381 0.2917623493298462 Ti
atom_frac 0.3333332999878965 0.2499458661477410 0.2083677467515789 Ti
atom_frac 0.5000012266647400 0.0833333346508612 0.0416544911070326 Ti
atom_frac 0.3333333532585940 0.0833333471884623 0.1249806788699911 Ti
atom_frac 0.4999944566606050 0.2499923419948499 0.0273723732472867 O
atom_frac 0.3333333563545639 0.2496752480222149 0.2774422781981444 O
atom_frac 0.5001935048058548 0.0833333625842970 0.3062001001059242 O
atom_frac 0.3333333500310300 0.0833333347328592 0.0559741391515848 O
atom_frac 0.3333333140084520 0.0833333459600962 0.1940684460589059 O
atom_frac 0.4999942983970390 0.0833333344867915 0.1107110170704275 O
atom_frac 0.3333333539001608 0.2499524229063833 0.1393302838017393 O
atom_frac 0.4999769433424908 0.2499554783177223 0.2227462004310559 O
atom_frac 0.4995316394556433 0.2501432824065462 0.6250189724350108 Ti
atom_frac 0.3333333328149564 0.2515338583481767 0.5411001811233271 Ti
atom_frac 0.4996871346912837 0.0833333576724796 0.3750367104056224 Ti
atom_frac 0.3333333399431007 0.0833333290607016 0.4587052380165382 Ti
atom_frac 0.4992242597402592 0.2504159279639480 0.3609467061824485 O
atom_frac 0.3333333325458412 0.2506932629123804 0.6104944881023378 O
atom_frac 0.4994608814203669 0.0833333304260830 0.6391238226245315 O
atom_frac 0.3333333404283987 0.0833333410932457 0.3894701141948042 O
atom_frac 0.3333333352166008 0.0833333357930752 0.5280496840835325 O
atom_frac 0.4995077207658712 0.0833333389371358 0.4442208705834553 O
atom_frac 0.3333333201229560 0.2494894840868012 0.4727898991685474 O
atom_frac 0.4992896880603082 0.2524525750656762 0.5556510184015342 O
atom_frac 0.4999869923976627 0.2499927574968615 0.9583234005722393 Ti
atom_frac 0.3333333373250807 0.2499847792192079 0.8749910523791228 Ti
atom_frac 0.4999646640619294 0.0833333257363173 0.7082755692772406 Ti
atom_frac 0.3333333302251897 0.0833333252158854 0.7916414436000576 Ti
atom_frac 0.4998510660580330 0.2498768172055970 0.6939406377405940 O
atom_frac 0.3333333511689721 0.2499964576933405 0.9440408074276029 O
atom_frac 0.4999922202887564 0.0833333489851897 0.9726314374710402 O
atom_frac 0.3333333333099153 0.0833333233908158 0.7226149904613383 O
atom_frac 0.3333333217163285 0.0833333282446972 0.8606962534707359 O
atom_frac 0.4999896153681941 0.0833333267749533 0.7773131837057270 O
atom_frac 0.3333333466918783 0.2499766583896931 0.8059604324099419 O
atom_frac 0.4999958890574500 0.2499872097837468 0.8892997050468729 O
atom_frac 0.5002962888133886 0.5833333432359906 0.2911614978666295 Ti
atom_frac 0.3333333419273785 0.5833333289419573 0.2081698514895355 Ti
atom_frac 0.4999984276640690 0.4166706676206350 0.0416423591650257 Ti
atom_frac 0.3333333532289018 0.4165667278887383 0.1249718202279521 Ti
atom_frac 0.4999947170543464 0.5833333430955864 0.0273738763954383 O
atom_frac 0.3333333490554195 0.5833333478150280 0.2771775244551170 O
atom_frac 0.5001054592317187 0.4166584188414856 0.3057289795392478 O
atom_frac 0.3333333492930028 0.4166157469236484 0.0559602318555101 O
atom_frac 0.3333333144420870 0.4166083452962488 0.1940295828516570 O
atom_frac 0.5000067563870363 0.4166164767370763 0.1107067594416820 O
atom_frac 0.3333333304353725 0.5833333251108905 0.1392133993998474 O
atom_frac 0.5001670368774686 0.5833333178878686 0.2223418464030794 O
atom_frac 0.4997155715461968 0.5833333234754319 0.6252671728283340 Ti
atom_frac 0.3333333324277357 0.5833333402621469 0.5427100994655533 Ti
atom_frac 0.4997452905075641 0.4175906332501811 0.3746883343085177 Ti
atom_frac 0.3333333357063881 0.4136351212641228 0.4578292083293846 Ti
atom_frac 0.5023406728692604 0.5833333272498490 0.3600653868553086 O
atom_frac 0.3333333321070516 0.5833333311885459 0.6124964251135061 O
atom_frac 0.5003664789419560 0.4165836683552008 0.6394435094716230 O
atom_frac 0.3333333382084995 0.4195301924689340 0.3882993585168499 O
atom_frac 0.3333333302175058 0.4218748062353726 0.5254273119285057 O
atom_frac 0.4987768858466637 0.4268389693205061 0.4441190110719967 O
atom_frac 0.5006077422700248 0.5833333344390947 0.5564451798623793 O
atom_frac 0.4999897907380205 0.5833333181574429 0.9583157930277262 Ti
atom_frac 0.3333333226142855 0.5833333405478868 0.8749878739535372 Ti
atom_frac 0.5001228715612358 0.4167775243301454 0.7084357202286655 Ti
atom_frac 0.3333333314384570 0.4166567934467238 0.7916764860010499 Ti
atom_frac 0.5009467728717379 0.5833333265117798 0.6944548443554336 O
atom_frac 0.3333333101823167 0.5833333587880427 0.9440391379245168 O
atom_frac 0.4999946988983003 0.4166685020166198 0.9726278437500437 O
atom_frac 0.3333333330247624 0.4167598607940854 0.7226575576581147 O
atom_frac 0.3333333207955052 0.4166568204094794 0.8607200641028890 O
atom_frac 0.5000283347126333 0.4165392571648404 0.7774409187640323 O
atom_frac 0.3333333374435426 0.5833333387953169 0.8059688937936151 O
atom_frac 0.4999991645772376 0.5833333212849203 0.8892942446716376 O
atom_frac 0.4999582399335727 0.9166337970806678 0.2917623540700471 Ti
atom_frac 0.3333333404197574 0.9167208020125760 0.2083677509658519 Ti
atom_frac 0.4999984457999336 0.7499959997985748 0.0416423860413248 Ti
atom_frac 0.3333333641049903 0.7500999254280453 0.1249718275001077 Ti
atom_frac 0.4999944349291170 0.9166743171498959 0.0273723779671736 O
atom_frac 0.3333333485144446 0.9169914042167103 0.2774422947211376 O
atom_frac 0.5001054778122943 0.7500082185324862 0.3057289727765161 O
atom_frac 0.3333333259736702 0.7500509202346576 0.0559602455299355 O
atom_frac 0.3333333250323355 0.7500583083005404 0.1940295940039017 O
atom_frac 0.5000067738911258 0.7500501889144896 0.1107067698670210 O
atom_frac 0.3333333301463962 0.9167142517347489 0.1393302799476862 O
atom_frac 0.4999769132863378 0.9167112030794452 0.2227462113979296 O
atom_frac 0.4995316399630108 0.9165233764939172 0.6250189723458879 Ti
atom_frac 0.3333333350299920 0.9151328130307936 0.5411001783701667 Ti
atom_frac 0.4997452903791760 0.7490760098585332 0.3746883292651756 Ti
atom_frac 0.3333333389150820 0.7530315256536682 0.4578292028975949 Ti
atom_frac 0.4992242605666057 0.9162507454642604 0.3609467112053231 O
atom_frac 0.3333333336720859 0.9159733950356684 0.6104944886893605 O
atom_frac 0.5003664808063456 0.7500829877959676 0.6394435079133686 O
atom_frac 0.3333333315259697 0.7471364681945780 0.3882993540390210 O
atom_frac 0.3333333302493801 0.7447918643372190 0.5254273132191155 O
atom_frac 0.4987768779071015 0.7398276894973288 0.4441190035541444 O
atom_frac 0.3333333373901179 0.9171771878026492 0.4727898999666087 O
atom_frac 0.4992896874518665 0.9142140898409097 0.5556510200024513 O
atom_frac 0.4999870051343873 0.9166739260458300 0.9583233976499945 Ti
atom_frac 0.3333333231686054 0.9166818881835250 0.8749910693958952 Ti
atom_frac 0.5001228739943565 0.7498891301148853 0.7084357130047059 Ti
atom_frac 0.3333333359964799 0.7500098959798345 0.7916764798836819 Ti
atom_frac 0.4998510684882316 0.9167898426161086 0.6939406369679482 O
atom_frac 0.3333333104547561 0.9166701834278435 0.9440408096548000 O
atom_frac 0.4999947111749703 0.7499981514013685 0.9726278457558719 O
atom_frac 0.3333333343420675 0.7499068008727741 0.7226575523603288 O
atom_frac 0.3333333432311656 0.7500098613218512 0.8607200648471729 O
atom_frac 0.5000283362663162 0.7501274296964476 0.7774409136933110 O
atom_frac 0.3333333376790245 0.9166900134849180 0.8059604310860675 O
atom_frac 0.4999959025756483 0.9166794827450754 0.8892997103513230 O
atom_frac 0.8333332936795191 0.2498530349787725 0.2917196344786997 Ti
atom_frac 0.6666451933839564 0.2499562041688215 0.2083830985868265 Ti
atom_frac 0.8333333314303215 0.0833333699702540 0.0416547068106421 Ti
atom_frac 0.6666668265281787 0.0833333065466817 0.1249875873377778 Ti
atom_frac 0.8333333167507974 0.2499927748668280 0.0273742344094568 O
atom_frac 0.6666479221613518 0.2498596475906244 0.2774507148901680 O
atom_frac 0.8333333311707894 0.0833333498038673 0.3060758895383980 O
atom_frac 0.6666679648283973 0.0833333521421416 0.0559810068231023 O
atom_frac 0.6666646317427937 0.0833333724057889 0.1940828043510545 O
atom_frac 0.8333333474060524 0.0833333125681264 0.1107193773022920 O
atom_frac 0.6666207099539813 0.2499277109631930 0.1393297750314831 O
atom_frac 0.8333333381714355 0.2500007148201189 0.2227041304206089 O
atom_frac 0.8333333362869582 0.2498161468050119 0.6248100273872018 Ti
atom_frac 0.6664077710992371 0.2505315718658049 0.5415738801065195 Ti
atom_frac 0.8333333346992829 0.0833333497303268 0.3752042415738552 Ti
atom_frac 0.6662163939160048 0.0833333249848813 0.4584586297477388 Ti
atom_frac 0.8333333457815773 0.2497545487295543 0.3607711001974180 O
atom_frac 0.6664121261745913 0.2494681421739914 0.6104459829764103 O
atom_frac 0.8333333355326608 0.0833333311591345 0.6391703998843935 O
atom_frac 0.6664799041811984 0.0833333179981600 0.3894455842208283 O
atom_frac 0.6659811547775182 0.0833333273129486 0.5272528739887971 O
atom_frac 0.8333333262227364 0.0833333309589984 0.4443854802691657 O
atom_frac 0.6641463199390980 0.2507001284987097 0.4724313264407777 O
atom_frac 0.8333333338539101 0.2500093123397237 0.5556971335180465 O
atom_frac 0.8333333278079212 0.2500000996787870 0.9583279510141930 Ti
atom_frac 0.6666672369892577 0.2499477749905837 0.8750152423025104 Ti
atom_frac 0.8333333373396283 0.0833333288412012 0.7083280042521640 Ti
atom_frac 0.6666174548658159 0.0833333316668357 0.7916440629153383 Ti
atom_frac 0.8333333395971653 0.2497476837234369 0.6939173020472773 O
atom_frac 0.6666608528577606 0.2499834761670820 0.9440522018265834 O
atom_frac 0.8333333286125184 0.0833333602781615 0.9726357073212701 O
atom_frac 0.6666151305922581 0.0833333304084915 0.7225966034992422 O
atom_frac 0.6666401065762279 0.0833333368439539 0.8607150183719573 O
atom_frac 0.8333333366848131 0.0833333362515773 0.7773224364347173 O
atom_frac 0.6666982644667052 0.2499406531934422 0.8059892989304807 O
atom_frac 0.8333333353523695 0.2499636850587642 0.8893077661545524 O
atom_frac 0.8333333267374105 0.5833333310273171 0.2918001816377642 Ti
atom_frac 0.6670958897732010 0.5833332886101309 0.2081137977132313 Ti
atom_frac 0.8333333313986665 0.4166720068667100 0.0416474045510865 Ti
atom_frac 0.6666606278701656 0.4164917236941802 0.1249639758894527 Ti
atom_frac 0.8333333566890714 0.5833333732451480 0.0273769981722048 O
atom_frac 0.6669021165107818 0.5833333664362634 0.2772088478214353 O
atom_frac 0.8333333325776228 0.4166629356824739 0.3061107942457273 O
atom_frac 0.6666598831297186 0.4166155232262571 0.0559527587935194 O
atom_frac 0.6667325413077658 0.4165848688652715 0.1940101215526419 O
atom_frac 0.8333333462135720 0.4165101915509675 0.1106962383024706 O
atom_frac 0.6668668234153005 0.5833333607406479 0.1392107010039475 O
atom_frac 0.8333333219358178 0.5833333379262285 0.2225657030673882 O
atom_frac 0.8333333331452669 0.5833333275838130 0.6254321209876098 Ti
atom_frac 0.6670774762428168 0.5833333354706153 0.5422716785138458 Ti
atom_frac 0.8333333349610880 0.4162521906809534 0.3751492621178523 Ti
atom_frac 0.6666359043860058 0.4177575091272659 0.4583516647137195 Ti
atom_frac 0.8333333400637938 0.5833333146002289 0.3609100324296617 O
atom_frac 0.6671203218098610 0.5833333332774995 0.6111054764303590 O
atom_frac 0.8333333357240388 0.4163111988207778 0.6393777040130408 O
atom_frac 0.6664876496439833 0.4149509780832547 0.3895133115718922 O
atom_frac 0.6669688809900504 0.4168267158233468 0.5274892341636885 O
atom_frac 0.8333333261916075 0.4165029931711257 0.4441160826182827 O
atom_frac 0.6699280348480016 0.5833333341130380 0.4729857015336827 O
atom_frac 0.8333333332466800 0.5833333333801369 0.5563779376469442 O
atom_frac 0.8333333181863567 0.5833333427871178 0.9583153339979973 Ti
atom_frac 0.6666621686855790 0.5833333349024874 0.8749996449361780 Ti
atom_frac 0.8333333376934652 0.4162684978107895 0.7083683156533005 Ti
atom_frac 0.6667309989498503 0.4166206202875699 0.7917261578422579 Ti
atom_frac 0.8333333332160070 0.5833333279976672 0.6942901133825794 O
atom_frac 0.6666619621400629 0.5833333231172630 0.9440422840964475 O
atom_frac 0.8333333278821137 0.4166693623506313 0.9726266820620478 O
atom_frac 0.6667648515185770 0.4160791755729525 0.7227018751700511 O
atom_frac 0.6666955006940506 0.4166416463903457 0.8607417507934131 O
atom_frac 0.8333333363133013 0.4166169106863750 0.7774534310889336 O
atom_frac 0.6666382662005739 0.5833333363692843 0.8059754724612000 O
atom_frac 0.8333333219018439 0.5833333277553265 0.8892965720630774 O
atom_frac 0.8333333236918520 0.9168136358949485 0.2917196324573160 Ti
atom_frac 0.6666451899983907 0.9167105054453519 0.2083830833732692 Ti
atom_frac 0.8333333517181577 0.7499946267819796 0.0416474137739941 Ti
atom_frac 0.6666605889960915 0.7501749696903224 0.1249639493842872 Ti
atom_frac 0.8333333558261593 0.9166738553809947 0.0273742279864738 O
atom_frac 0.6666479410872861 0.9168069878429407 0.2774507174207046 O
atom_frac 0.8333333455822497 0.7500037155568094 0.3061107902162122 O
atom_frac 0.6666599089939181 0.7500511272157987 0.0559527530148643 O
atom_frac 0.6667325571967324 0.7500817579832770 0.1940101152607299 O
atom_frac 0.8333332930251113 0.7501564958333181 0.1106962386512182 O
atom_frac 0.6666207101853183 0.9167389277258418 0.1393297604649290 O
atom_frac 0.8333333226754870 0.9166659458529250 0.2227041334814683 O
atom_frac 0.8333333353108554 0.9168505168428689 0.6248100260490808 Ti
atom_frac 0.6664077707394408 0.9161350846481200 0.5415738800691046 Ti
atom_frac 0.8333333429611864 0.7504144601903052 0.3751492498204957 Ti
atom_frac 0.6666359121606372 0.7489091605821337 0.4583516547342008 Ti
atom_frac 0.8333333410671715 0.9169121384564933 0.3607711041579259 O
atom_frac 0.6664121261980046 0.9171985111224451 0.6104459837222154 O
atom_frac 0.8333333318326414 0.7503554600314243 0.6393777030370357 O
atom_frac 0.6664876542478635 0.7517157044536621 0.3895133082761162 O
atom_frac 0.6669688840757636 0.7498399504004163 0.5274892331843335 O
atom_frac 0.8333333321165534 0.7501636678931963 0.4441160825384490 O
atom_frac 0.6641463138782462 0.9159665309419360 0.4724313243066569 O
atom_frac 0.8333333347640061 0.9166573503556504 0.5556971339640319 O
atom_frac 0.8333333175696169 0.9166665599920775 0.9583279500248708 Ti
atom_frac 0.6666672443644117 0.9167189089161911 0.8750152504223956 Ti
atom_frac 0.8333333338465287 0.7503981584090169 0.7083683109617371 Ti
atom_frac 0.6667309935955529 0.7500460724144455 0.7917261602392158 Ti
atom_frac 0.8333333349190758 0.9169189787225683 0.6939173018147070 O
atom_frac 0.6666608812291536 0.9166832042503833 0.9440522060433881 O
atom_frac 0.8333332997450725 0.7499972813462297 0.9726266711201269 O
atom_frac 0.6667648506046034 0.7505874834695676 0.7227018708335117 O
atom_frac 0.6666954736419297 0.7500250329369126 0.8607417540146005 O
atom_frac 0.8333333340061384 0.7500497692578306 0.7774534274603445 O
atom_frac 0.6666982695594512 0.9167260265348265 0.8059893054853100 O
atom_frac 0.8333333216784977 0.9167030046186553 0.8893077581589903 O
