#=======================================================
# FHI-aims file: ./geometry.in
# Created using the Atomic Simulation Environment (ASE)
# Thu May  9 18:46:37 2024
#=======================================================
lattice_vector 10.6039999999999992 0.0000000000000000 0.0000000000000000 
lattice_vector 0.0000000000000000 10.6039999999999992 0.0000000000000000 
lattice_vector 0.0000000000000000 0.0000000000000000 10.6039999999999992 
atom_frac 0.7499999970184209 0.2499999875924696 0.7499999880687079 Y
atom_frac 0.2500000024809684 0.7499999963554902 0.7500000066346900 Y
atom_frac 0.7500000095840540 0.7500000039964172 0.2499999990811418 Y
atom_frac 0.7499999919618532 0.7499999975013250 0.7500000026442838 Y
atom_frac 0.2500000058499932 0.7500000064006437 0.2500000077869459 Y
atom_frac 0.7499999966610159 0.2499999999455127 0.2500000081791467 Y
atom_frac 0.2499999339726680 0.2499999863934092 0.7500000163765577 Y
atom_frac 0.2500000160346669 0.2499999862250436 0.2499999968418656 Y
atom_frac 0.7500000101624793 0.9682226900414743 0.5000000026554674 Y
atom_frac 0.2500000474480987 0.4682226730336157 -0.0000000122855155 Y
atom_frac 0.7499999930163354 0.0317773152999589 -0.0000000088166613 Y
atom_frac 0.4999999996332811 0.7499999826768231 0.9682211851728384 Y
atom_frac -0.0000000082991933 0.2499999953455878 0.4682211985146179 Y
atom_frac 0.0000000027955686 0.7500000118420413 0.0317788053690814 Y
atom_frac 0.9682243150576043 0.5000000000883021 0.7499999681177720 Y
atom_frac 0.4682243139828248 -0.0000000001219124 0.2499999872584145 Y
atom_frac 0.0317756838028223 0.0000000168634626 0.7499999986879914 Y
atom_frac 0.2499999787068563 0.0317773188518840 0.5000000024130405 Y
atom_frac 0.7499999674453751 0.5317773377369450 0.0000000047401266 Y
atom_frac 0.2500000034422767 0.9682226930966205 -0.0000000065140098 Y
atom_frac 0.4999999961444035 0.2500000098186402 0.0317788168851606 Y
atom_frac -0.0000000026129301 0.7499999934838318 0.5317788110155431 Y
atom_frac 0.0000000078984256 0.2499999790709808 0.9682211782286467 Y
atom_frac 0.0317756853762051 0.4999999867772753 0.2500000274655100 Y
atom_frac 0.5317756818881049 0.0000000007644195 0.7500000096481102 Y
atom_frac 0.9682243178927010 -0.0000000016610936 0.2500000119954283 Y
atom_frac 0.2500000045786804 0.5317773420060525 0.4999999867339119 Y
atom_frac 0.5000000086591401 0.2499999870065724 0.5317787985844690 Y
atom_frac 0.5317756897731682 0.4999999839986191 0.2499999716105899 Y
atom_frac 0.7500000342668884 0.4682226707201046 0.4999999954831180 Y
atom_frac 0.4999999934489943 0.7500000060603627 0.4682211912246584 Y
atom_frac 0.4682243179696890 0.5000000191696746 0.7500000384919689 Y
atom_frac 0.6199890624089572 0.3904478245984854 0.6512248686846721 O
atom_frac 0.3800109216521382 0.8904478291460365 0.8487751183190125 O
atom_frac 0.8800109458070777 0.6095521706408888 0.1512248753789550 O
atom_frac 0.6199890777631810 0.6095521677304608 0.8487751166785691 O
atom_frac 0.6512267418948104 0.6199882244678088 0.3904469329725007 O
atom_frac 0.8487732624895822 0.3800117850277811 0.8904469354352957 O
atom_frac 0.1512267405031651 0.8800117837810759 0.6095530709099123 O
atom_frac 0.8487732578799717 0.6199882187215355 0.6095530762797376 O
atom_frac 0.3904517730830743 0.6512216845024981 0.6199868035040306 O
atom_frac 0.8904517664043251 0.8487783168192223 0.3800131761769422 O
atom_frac 0.6095482326993314 0.1512216856757621 0.8800131745810510 O
atom_frac 0.6095482198913187 0.8487783128408641 0.6199868138386003 O
atom_frac 0.3800109334502111 0.6095521749310135 0.3487751259810346 O
atom_frac 0.6199890783966412 0.1095521692824636 0.1512248793781316 O
atom_frac 0.1199890659083544 0.3904478339818344 0.8487751347427294 O
atom_frac 0.3800109291358866 0.3904478239031216 0.1512248868815742 O
atom_frac 0.3487732604004977 0.3800117813013342 0.6095530662185887 O
atom_frac 0.1512267407121904 0.6199882181292832 0.1095530702863622 O
atom_frac 0.8487732570989581 0.1199882143940734 0.3904469235771491 O
atom_frac 0.1512267510920106 0.3800117862523652 0.3904469229999037 O
atom_frac 0.6095482244330320 0.3487783075759341 0.3800131963503293 O
atom_frac 0.1095482323113668 0.1512216863794672 0.6199868196265172 O
atom_frac 0.3904517652782963 0.8487783177969576 0.1199868274255447 O
atom_frac 0.3904517727767543 0.1512216907443994 0.3800131951342881 O
atom_frac 0.1199890746612886 0.8904478164550644 0.1512248768353168 O
atom_frac 0.8800109341216698 0.3904478284109680 0.3487751062446622 O
atom_frac 0.3800109200812282 0.1095521874823708 0.6512248766903279 O
atom_frac 0.1199890798131102 0.1095521734715240 0.3487751185346629 O
atom_frac 0.1512267268704398 0.1199882327708390 0.8904469342839373 O
atom_frac 0.3487732681539893 0.8800117735108082 0.3904469316070926 O
atom_frac 0.6512267542802433 0.3800117822033433 0.1095530717272894 O
atom_frac 0.3487732616949160 0.1199882142831770 0.1095530757357359 O
atom_frac 0.8904517708577662 0.1512216941757492 0.1199868139782215 O
atom_frac 0.3904517640085335 0.3487783086014301 0.8800131658888332 O
atom_frac 0.1095482400525982 0.6512216825114315 0.3800131665420724 O
atom_frac 0.1095482324486106 0.3487783122854465 0.1199868155464384 O
atom_frac 0.8800109138140895 0.1095521873556151 0.8487751320529233 O
atom_frac 0.1199890765150781 0.6095521695897527 0.6512248794479057 O
atom_frac 0.6199890724777377 0.8904478168691640 0.3487751217847270 O
atom_frac 0.8800109140600075 0.8904478240228368 0.6512248767472724 O
atom_frac 0.8487732706349586 0.8800117744789910 0.1095530682989058 O
atom_frac 0.6512267154377365 0.1199882315447043 0.6095530713489090 O
atom_frac 0.3487732562603262 0.6199882126347213 0.8904469238412140 O
atom_frac 0.6512267363464259 0.8800117930936837 0.8904469272818732 O
atom_frac 0.1095482254820594 0.8487783022019006 0.8800131911486582 O
atom_frac 0.6095482446687980 0.6512216892025999 0.1199868301162815 O
atom_frac 0.8904517624032718 0.3487783167923900 0.6199868297362943 O
atom_frac 0.8904517753425435 0.6512216910462691 0.8800131949253873 O
