#=======================================================
# FHI-aims file: ./geometry.in
# Created using the Atomic Simulation Environment (ASE)
# Mon Apr  8 22:46:27 2024
#=======================================================
lattice_vector 7.3258200000000002 0.0000000000000000 0.0000000000000000 
lattice_vector 0.0000000000000000 7.5476700000000001 0.0000000000000000 
lattice_vector -0.0913152982390541 0.0000000000000000 7.7107393131078892 
atom_frac 0.2425974391092822 0.5228601566068142 0.2175626945987396 W
atom_frac 0.7425969703166013 0.9771385004269543 0.7175643258695535 W
atom_frac 0.7574023505889865 0.4771385511356262 0.7824366384119740 W
atom_frac 0.2574036926298757 0.0228626782461362 0.2824323920662914 W
atom_frac 0.2578716636403212 0.5270343679091349 0.7202241074300028 W
atom_frac 0.7578709760326046 0.9729668540941186 0.2202220523312668 W
atom_frac 0.7421280077157045 0.4729665059097131 0.2797761618780258 W
atom_frac 0.2421297643144602 0.0270327147388290 0.7797813858631670 W
atom_frac 0.4995549018827086 0.5311766666493285 0.2830782247316390 O
atom_frac 0.9995535680137666 0.9688232505701942 0.7830780456057655 O
atom_frac 0.5004447723707858 0.4688233344676385 0.7169215921246094 O
atom_frac 0.0004462496131953 0.0311767939020924 0.2169215378514132 O
atom_frac 0.5010192749609598 0.9693131998098096 0.2813529561673306 O
atom_frac 0.0010179589952710 0.5306865029048045 0.7813520759841085 O
atom_frac 0.4989814609093072 0.0306867486358763 0.7186477231757438 O
atom_frac 0.9989824489888892 0.4693136070315977 0.2186474927993481 O
atom_frac 0.2202821944978666 0.7559961031503957 0.2207646767205522 O
atom_frac 0.7202823643991659 0.7440042348191647 0.7207649975348427 O
atom_frac 0.7797177151563476 0.2440048200446486 0.7792356316642514 O
atom_frac 0.2797174723427639 0.2559944951716450 0.2792355232067547 O
atom_frac 0.2856625866455923 0.7556664777737252 0.7643796446812107 O
atom_frac 0.7856624386164606 0.7443327905708402 0.2643793969990063 O
atom_frac 0.7143371951140876 0.2443337398609342 0.2356202857255085 O
atom_frac 0.2143375341931189 0.2556669948886464 0.7356204667910587 O
atom_frac 0.2169373857282844 0.5314208847352222 0.4971351298023041 O
atom_frac 0.7169372682084281 0.9685788756319126 0.9971358774258597 O
atom_frac 0.7830626475113306 0.4685790006787563 0.5028639886750820 O
atom_frac 0.2830621757698537 0.0314212844190593 0.0028618470420940 O
atom_frac 0.2172207206949445 0.9860062251675430 0.5022249290907158 O
atom_frac 0.7172210619602670 0.5139940739481094 0.0022221598061239 O
atom_frac 0.7827787341008104 0.0139934701627604 0.4977775079300998 O
atom_frac 0.2827790049779467 0.4860060959379782 0.9977785300155666 O
