#=======================================================
# FHI-aims file: ./geometry.in
# Created using the Atomic Simulation Environment (ASE)
# Wed Jul 17 02:14:47 2024
#=======================================================
lattice_vector 11.3550000000000004 0.0000000000000000 0.0000000000000000 
lattice_vector 0.0000000000000000 11.3550000000000004 0.0000000000000000 
lattice_vector 0.0000000000000000 0.0000000000000000 28.5398999999999958 
atom_frac 0.1666939066225462 0.2501547573779535 0.2913729122731690 Ti
atom_frac 0.0000443462643204 0.2500155369791642 0.2081262705967894 Ti
atom_frac 0.1666669796120772 0.0833333246955055 0.0416672131964676 Ti
atom_frac 0.0000070639128374 0.0833333947533896 0.1248995371615334 Ti
atom_frac 0.1666681321822245 0.2500020006691835 0.0274466550843628 O
atom_frac 0.0000122630690908 0.2502436076520962 0.2771128307225886 O
atom_frac 0.1663969688907998 0.0833333036042427 0.3054866179747473 O
atom_frac 0.0000023896206901 0.0833333395735609 0.0558939667727916 O
atom_frac 0.0000831006082191 0.0833333423706740 0.1939058641733079 O
atom_frac 0.1666746196298188 0.0833333304680788 0.1106687673192440 O
atom_frac 0.0000196060185385 0.2500008391785919 0.1391190179788147 O
atom_frac 0.1666954065128394 0.2501128545757823 0.2223511122723307 O
atom_frac 0.1651155395533108 0.2499525666478932 0.6252883966765214 Ti
atom_frac -0.0005273157017522 0.2494729893104208 0.5416667722455737 Ti
atom_frac 0.1660092147607378 0.0833333140053944 0.3744295128701450 Ti
atom_frac -0.0001237808944765 0.0833333939012754 0.4578217770126901 Ti
atom_frac 0.1666330618880794 0.2501054154562039 0.3603356315029256 O
atom_frac -0.0005559587826523 0.2504149221540657 0.6110236788582500 O
atom_frac 0.1657213495409111 0.0833333614671338 0.6397543049038072 O
atom_frac -0.0002600041737400 0.0833332725026042 0.3886839186436307 O
atom_frac -0.0015261261915853 0.0833333887710610 0.5268919535011256 O
atom_frac 0.1661740480818638 0.0833333995343687 0.4432871146517662 O
atom_frac 0.0004143402996146 0.2494439681507877 0.4723093120870706 O
atom_frac 0.1653422833140175 0.2472056537943307 0.5565290856981168 O
atom_frac 0.1666605830672846 0.2500010856109680 0.9584421589668294 Ti
atom_frac 0.0000155514481297 0.2500444135669468 0.8752074501861592 Ti
atom_frac 0.1667424934774936 0.0833333638652256 0.7087426023556704 Ti
atom_frac 0.0001438800199844 0.0833333174125815 0.7920222915833719 Ti
atom_frac 0.1668060122089658 0.2498398684425457 0.6944856587847397 O
atom_frac 0.0000008743080993 0.2500195825979629 0.9442140932068959 O
atom_frac 0.1666587696231146 0.0833333263974760 0.9726679723628172 O
atom_frac 0.0000368539566635 0.0833333917593141 0.7230532712109500 O
atom_frac 0.0000213860576532 0.0833333040141309 0.8610188504376473 O
atom_frac 0.1667496536593671 0.0833333135586956 0.7777758636003946 O
atom_frac 0.0002436156222865 0.2500122672822191 0.8062202594092744 O
atom_frac 0.1666880019754284 0.2500135445346113 0.8894438135979676 O
atom_frac 0.1666912057177397 0.5833332901228324 0.2913327337011266 Ti
atom_frac -0.0000060117354940 0.5833333192776639 0.2081261998363000 Ti
atom_frac 0.1666653515336412 0.4166653568458267 0.0416668373687163 Ti
atom_frac 0.0000010783297106 0.4166604632758059 0.1248908777200826 Ti
atom_frac 0.1666675115006557 0.5833333250063466 0.0274424623489790 O
atom_frac 0.0000115017949478 0.5833333140664274 0.2771228227849299 O
atom_frac 0.1666405311550575 0.4167835095447443 0.3056151332634883 O
atom_frac 0.0000020191326533 0.4166680575679347 0.0558870626085834 O
atom_frac 0.0000135389232772 0.4166879644458443 0.1938899042701238 O
atom_frac 0.1666727114834189 0.4166646339214755 0.1106664375632927 O
atom_frac 0.0000117968845953 0.5833333039238189 0.1391136838999427 O
atom_frac 0.1666864960332824 0.5833333194825115 0.2223795801859103 O
atom_frac 0.1604198476255669 0.5833333688043768 0.6257352223902904 Ti
atom_frac -0.0034716953098859 0.5833333992885088 0.5401782049487963 Ti
atom_frac 0.1661501741810162 0.4168800940914826 0.3746760983337061 Ti
atom_frac -0.0000477932215694 0.4151163470734226 0.4580448979033199 Ti
atom_frac 0.1665465207100104 0.5833333101569889 0.3604462101933298 O
atom_frac -0.0018725298368074 0.5833333446803496 0.6120279823489632 O
atom_frac 0.1654413951544816 0.4161555218903417 0.6397120230287969 O
atom_frac -0.0001601532458637 0.4168063429184007 0.3888478763424720 O
atom_frac -0.0027952360598647 0.4153417091806366 0.5268043454388903 O
atom_frac 0.1661554673606828 0.4154403740190218 0.4436210218890439 O
atom_frac -0.0004888747964920 0.5833333895292554 0.4723423214961054 O
atom_frac 0.1562861870924357 0.5833333882722691 0.5570610842145662 O
atom_frac 0.1666713191796026 0.5833333327846136 0.9584405970646346 Ti
atom_frac 0.0000049977413892 0.5833332875695656 0.8752084686182973 Ti
atom_frac 0.1668801415632284 0.4161513240148925 0.7086574616238913 Ti
atom_frac 0.0001548572648324 0.4166938488874531 0.7919600571167660 Ti
atom_frac 0.1670706941093465 0.5833333589044932 0.6943825783609670 O
atom_frac 0.0000020121069936 0.5833333174418028 0.9442048244701738 O
atom_frac 0.1666646837295553 0.4166727075091616 0.9726666707074361 O
atom_frac 0.0001055005252974 0.4166332484302765 0.7229980818060687 O
atom_frac 0.0001128520208824 0.4166953677942912 0.8609826083256791 O
atom_frac 0.1667836018535950 0.4166405236780238 0.7777179041833443 O
atom_frac 0.0000494223116991 0.5833333089130180 0.8061820887702482 O
atom_frac 0.1666907291009021 0.5833332951861602 0.8894360836697334 O
atom_frac 0.1666938363643326 0.9165118198996826 0.2913729033163924 Ti
atom_frac 0.0000443565263313 0.9166511301920671 0.2081262011690103 Ti
atom_frac 0.1666653546234666 0.7500012983845981 0.0416668380917386 Ti
atom_frac 0.0000010722562409 0.7500061184152644 0.1248908710192681 Ti
atom_frac 0.1666681650892189 0.9166646496390394 0.0274466561867333 O
atom_frac 0.0000122819451457 0.9164229592627892 0.2771128227361718 O
atom_frac 0.1666405239070430 0.7498830937585901 0.3056151227322547 O
atom_frac 0.0000020145158590 0.7499985762787704 0.0558870454028061 O
atom_frac 0.0000135448704579 0.7499786681951046 0.1938898760736453 O
atom_frac 0.1666727108026972 0.7500020078275753 0.1106664289246193 O
atom_frac 0.0000195823598491 0.9166658314416732 0.1391190104340663 O
atom_frac 0.1666953900521004 0.9165538077100175 0.2223510838776715 O
atom_frac 0.1651155171995647 0.9167141829812030 0.6252884009645878 Ti
atom_frac -0.0005273152345048 0.9171937973807865 0.5416667676363021 Ti
atom_frac 0.1661501719993404 0.7497865483151196 0.3746760942063638 Ti
atom_frac -0.0000477913156897 0.7515504442110651 0.4580448932024313 Ti
atom_frac 0.1666330407183343 0.9165611867834138 0.3603356122519035 O
atom_frac -0.0005559672026769 0.9162518027646904 0.6110236775942793 O
atom_frac 0.1654413839385535 0.7505111954146960 0.6397120231838006 O
atom_frac -0.0001601535093819 0.7498603024882471 0.3888478751308578 O
atom_frac -0.0027952293795802 0.7513250691126281 0.5268043411993830 O
atom_frac 0.1661554633596684 0.7512264043979151 0.4436210144471328 O
atom_frac 0.0004143518267290 0.9172228059041063 0.4723093145643585 O
atom_frac 0.1653422785573415 0.9194611117645615 0.5565290902684470 O
atom_frac 0.1666605747307953 0.9166655680424359 0.9584421545286634 Ti
atom_frac 0.0000155486676767 0.9166221647090604 0.8752074492173972 Ti
atom_frac 0.1668801398892906 0.7505153988052288 0.7086574596353731 Ti
atom_frac 0.0001548550887448 0.7499727853552121 0.7919600570867338 Ti
atom_frac 0.1668059775113663 0.9168268530388592 0.6944856595198599 O
atom_frac 0.0000008701726448 0.9166470791876496 0.9442140932374505 O
atom_frac 0.1666646848287401 0.7499939412324879 0.9726666652606848 O
atom_frac 0.0001054965631297 0.7500334803573889 0.7229980840205695 O
atom_frac 0.0001128590412387 0.7499712416566179 0.8609826095427775 O
atom_frac 0.1667836018855939 0.7500261115647611 0.7777179015221000 O
atom_frac 0.0002436250466193 0.9166543426638520 0.8062202596789841 O
atom_frac 0.1666880019361171 0.9166530434182603 0.8894438127379398 O
atom_frac 0.4999728710454720 0.2501547418267039 0.2913729052692365 Ti
atom_frac 0.3333333599796474 0.2500049447475184 0.2081251811594424 Ti
atom_frac 0.4999996920434395 0.0833333335911348 0.0416672190580421 Ti
atom_frac 0.3333333246843676 0.0833333228460956 0.1248950337854311 Ti
atom_frac 0.4999985273133863 0.2500020007549457 0.0274466576161022 O
atom_frac 0.3333333730492937 0.2500491175125118 0.2771510021640388 O
atom_frac 0.5002697148115887 0.0833332983878331 0.3054866150437808 O
atom_frac 0.3333333285904438 0.0833333312758646 0.0558924159080585 O
atom_frac 0.3333333553881568 0.0833333245141524 0.1939041573302432 O
atom_frac 0.4999920547837607 0.0833333229942957 0.1106687489006267 O
atom_frac 0.3333333038675292 0.2500019745017818 0.1391282550759378 O
atom_frac 0.4999712967173766 0.2501128544167989 0.2223510763134605 O
atom_frac 0.5015510823986179 0.2499525664292476 0.6252883948886033 Ti
atom_frac 0.3333333090475130 0.2465289691749512 0.5431561593984705 Ti
atom_frac 0.5006574856663892 0.0833333166011480 0.3744295206362234 Ti
atom_frac 0.3333333413498973 0.0833333602328880 0.4569072744229042 Ti
atom_frac 0.5000336551453471 0.2501054130490051 0.3603356095700084 O
atom_frac 0.3333333101296221 0.2495114306109271 0.6109905467417700 O
atom_frac 0.5009452640136786 0.0833333615275433 0.6397543026459103 O
atom_frac 0.3333333470532661 0.0833332641133210 0.3884452472265126 O
atom_frac 0.3333333004035500 0.0833333704475444 0.5264996863393545 O
atom_frac 0.5004926504915285 0.0833333894273805 0.4432871075823430 O
atom_frac 0.3333333811482868 0.2481280028431217 0.4713065318950762 O
atom_frac 0.5013243404692906 0.2472056540507749 0.5565290845398938 O
atom_frac 0.5000061020897291 0.2500010862190244 0.9584421541424046 Ti
atom_frac 0.3333333380519541 0.2499939978958942 0.8752074246814937 Ti
atom_frac 0.4999241831964790 0.0833333640734756 0.7087426013237625 Ti
atom_frac 0.3333333376321111 0.0833332909032564 0.7919946256233658 Ti
atom_frac 0.4998606678742170 0.2498398735796270 0.6944856587156272 O
atom_frac 0.3333333391457309 0.2500118148323831 0.9442193797286752 O
atom_frac 0.5000079127550183 0.0833333261435518 0.9726679694577597 O
atom_frac 0.3333333347539132 0.0833333074894337 0.7229542708317902 O
atom_frac 0.3333333432075214 0.0833332998315561 0.8609916336933058 O
atom_frac 0.4999170213376912 0.0833333120543117 0.7777758639930972 O
atom_frac 0.3333333423974476 0.2500114290866463 0.8062102430400493 O
atom_frac 0.4999786797028049 0.2500135437970464 0.8894438092540613 O
atom_frac 0.4999754399982605 0.5833332919108355 0.2913327374763231 Ti
atom_frac 0.3333333394538386 0.5833333275586710 0.2081258736111956 Ti
atom_frac 0.5000013204486283 0.4166653478324930 0.0416668431064475 Ti
atom_frac 0.3333333244644534 0.4166712588017712 0.1248924078649866 Ti
atom_frac 0.4999992122861592 0.5833333230344873 0.0274424654634600 O
atom_frac 0.3333333318506762 0.5833332973390432 0.2771397987795525 O
atom_frac 0.5000261477385772 0.4167835124474770 0.3056151266623900 O
atom_frac 0.3333333281491143 0.4166673934577797 0.0558912548533996 O
atom_frac 0.3333333547238450 0.4166906792528845 0.1938976175247996 O
atom_frac 0.4999939629301370 0.4166646418034641 0.1106664190108154 O
atom_frac 0.3333333465814001 0.5833333243089803 0.1391281814389736 O
atom_frac 0.4999801740246379 0.5833333324747318 0.2223795984736836 O
atom_frac 0.5062466871635767 0.5833333690853361 0.6257352104813626 Ti
atom_frac 0.3333332079913931 0.5833333698482340 0.5416635217909354 Au
atom_frac 0.5005165144217465 0.4168800954256476 0.3746760924918307 Ti
atom_frac 0.3333333534039968 0.4104187009509438 0.4575966715518504 Ti
atom_frac 0.5001201742011785 0.5833333036445217 0.3604462201978544 O
atom_frac 0.3333332667082691 0.5833333670973019 0.6107870500444925 O
atom_frac 0.5012251907135511 0.4161555270745852 0.6397120199265870 O
atom_frac 0.3333333443927615 0.4170699021426509 0.3889509986917731 O
atom_frac 0.3333332863454421 0.4062939682263623 0.5262729297348298 O
atom_frac 0.5005112124162933 0.4154404193782159 0.4436210151263617 O
atom_frac 0.3333332763009191 0.5833333725614732 0.4725414911387498 O
atom_frac 0.5103803578997796 0.5833333868206496 0.5570610731167791 O
atom_frac 0.4999953703282614 0.5833333242120579 0.9584406041940993 Ti
atom_frac 0.3333333511503001 0.5833332951425028 0.8752077249234591 Ti
atom_frac 0.4997865300162670 0.4161513407533353 0.7086574588553941 Ti
atom_frac 0.3333333325187252 0.4166911064522869 0.7920002226921206 Ti
atom_frac 0.4995959544556576 0.5833333585254350 0.6943825708908431 O
atom_frac 0.3333333444874754 0.5833333262341944 0.9442048923554867 O
atom_frac 0.5000019985030630 0.4166727079153322 0.9726666675436698 O
atom_frac 0.3333333324596691 0.4165463434990997 0.7228874354274755 O
atom_frac 0.3333333434309306 0.4166864457877619 0.8609540801563690 O
atom_frac 0.4998830646934330 0.4166405295606100 0.7777179032675573 O
atom_frac 0.3333333357949644 0.5833333087202129 0.8061932519430708 O
atom_frac 0.4999759556662006 0.5833332933851554 0.8894360821103150 O
atom_frac 0.4999728083229373 0.9165118327584346 0.2913729113521732 Ti
atom_frac 0.3333333427189436 0.9166617098105301 0.2081251817817532 Ti
atom_frac 0.5000013216591619 0.7500012985005579 0.0416668432287928 Ti
atom_frac 0.3333333387685638 0.7499953848714853 0.1248924076850893 Ti
atom_frac 0.4999985591243939 0.9166646517437977 0.0274466597853955 O
atom_frac 0.3333333339115447 0.9166174767888667 0.2771510011388766 O
atom_frac 0.5000261481118365 0.7498830963491595 0.3056151358119839 O
atom_frac 0.3333333386321173 0.7499992504940514 0.0558912550821228 O
atom_frac 0.3333333425802701 0.7499759699752570 0.1938976176296199 O
atom_frac 0.4999939622329584 0.7500020077056874 0.1106664274985625 O
atom_frac 0.3333333476173057 0.9166646743578382 0.1391282544109959 O
atom_frac 0.4999712818154656 0.9165537946709126 0.2223511038629319 O
atom_frac 0.5015511018267956 0.9167141837261074 0.6252883989182425 Ti
atom_frac 0.3333333075499887 0.9201377656772870 0.5431561700225794 Ti
atom_frac 0.5005165229106956 0.7497865468176179 0.3746761017073934 Ti
atom_frac 0.3333333461108127 0.7562480441824818 0.4575966703276475 Ti
atom_frac 0.5000336539413345 0.9165611959774845 0.3603356271653443 O
atom_frac 0.3333333098820785 0.9171552958106822 0.6109905560457584 O
atom_frac 0.5012252005749939 0.7505111902935755 0.6397120202645754 O
atom_frac 0.3333333425064214 0.7495966959662397 0.3889509995427962 O
atom_frac 0.3333332902873011 0.7603727792659239 0.5262729324611848 O
atom_frac 0.5005112136723023 0.7512263693613587 0.4436210217640898 O
atom_frac 0.3333333584044898 0.9185387406066677 0.4713065301584317 O
atom_frac 0.5013243434249831 0.9194611133145976 0.5565290877380776 O
atom_frac 0.5000061151838465 0.9166655764904759 0.9584421622778767 Ti
atom_frac 0.3333333507063412 0.9166725737005588 0.8752074290002366 Ti
atom_frac 0.4997865316012516 0.7505153819722760 0.7086574558628258 Ti
atom_frac 0.3333333328991949 0.7499754947794243 0.7920002169569540 Ti
atom_frac 0.4998607034146049 0.9168268483908969 0.6944856588237147 O
atom_frac 0.3333333444182446 0.9166548441628855 0.9442193825153918 O
atom_frac 0.5000019881231639 0.7499939412848210 0.9726666735604791 O
atom_frac 0.3333333329596456 0.7501203738036157 0.7228874287354388 O
atom_frac 0.3333333444243033 0.7499801639679805 0.8609540777277478 O
atom_frac 0.4998830635061209 0.7500261072654372 0.7777179008729737 O
atom_frac 0.3333333415008804 0.9166551827682360 0.8062102408578915 O
atom_frac 0.4999786830513391 0.9166530460858772 0.8894438116958292 O
atom_frac 0.8333332434315945 0.2501439090750376 0.2913107666274601 Ti
atom_frac 0.6666223263143649 0.2500155369744055 0.2081261685186347 Ti
atom_frac 0.8333333514624135 0.0833333221179643 0.0416668289139863 Ti
atom_frac 0.6666596346016374 0.0833332619993958 0.1248995142242229 Ti
atom_frac 0.8333333636950576 0.2500023768269993 0.0274397579802060 O
atom_frac 0.6666543902441592 0.2502436081993112 0.2771128035989571 O
atom_frac 0.8333333457348253 0.0833332998459147 0.3054733357332203 O
atom_frac 0.6666643054881244 0.0833333153527188 0.0558939513000343 O
atom_frac 0.6665835729231067 0.0833333102148132 0.1939058308949987 O
atom_frac 0.8333333496213264 0.0833333277170289 0.1106727641924078 O
atom_frac 0.6666471146152102 0.2500008392302979 0.1391189931704302 O
atom_frac 0.8333333235256013 0.2500213380534775 0.2223148347315138 O
atom_frac 0.8333333033593419 0.2498765023296371 0.6255114318332399 Ti
atom_frac 0.6671939418775025 0.2494729963831102 0.5416667669296584 Ti
atom_frac 0.8333333540876046 0.0833332923285907 0.3744052090432128 Ti
atom_frac 0.6667904774964647 0.0833333994291960 0.4578217710754443 Ti
atom_frac 0.8333333217656284 0.2500368378881304 0.3602803979290903 O
atom_frac 0.6672225783238718 0.2504149186599097 0.6110236771432407 O
atom_frac 0.8333333102454925 0.0833333607105707 0.6398718171394654 O
atom_frac 0.6669267017128327 0.0833333400973323 0.3886839172354078 O
atom_frac 0.6681927616574420 0.0833333932269540 0.5268919473380439 O
atom_frac 0.8333333456244012 0.0833333894962023 0.4434611665549921 O
atom_frac 0.6662523290988223 0.2494439726360221 0.4723093080175587 O
atom_frac 0.8333333097338396 0.2484730981591455 0.5564416452198576 O
atom_frac 0.8333333364690394 0.2500070656664995 0.9584335079494448 Ti
atom_frac 0.6666511344930166 0.2500444136843633 0.8752074426732860 Ti
atom_frac 0.8333333384993716 0.0833333393578683 0.7089284207662124 Ti
atom_frac 0.6665227923097881 0.0833333144570611 0.7920222902561932 Ti
atom_frac 0.8333333404276638 0.2497398639174026 0.6946497637020864 O
atom_frac 0.6666658084270491 0.2500195827166060 0.9442140916333714 O
atom_frac 0.8333333398999015 0.0833333232026058 0.9726603448547604 O
atom_frac 0.6666298215729169 0.0833333923021757 0.7230532706191074 O
atom_frac 0.6666452929243099 0.0833333017556266 0.8610188490534314 O
atom_frac 0.8333333347520198 0.0833332703386017 0.7778597214674907 O
atom_frac 0.6664230490245460 0.2500122674128232 0.8062202572691962 O
atom_frac 0.8333333397517805 0.2500830843307869 0.8894278765046424 O
atom_frac 0.8333333772178209 0.5833332887011015 0.2913383747900147 Ti
atom_frac 0.6666727004274254 0.5833333354513585 0.2081262312394018 Ti
atom_frac 0.8333333513290067 0.4166670035790376 0.0416664472993293 Ti
atom_frac 0.6666656197196278 0.4166605966388737 0.1248908549050317 Ti
atom_frac 0.8333332992442295 0.5833333245494824 0.0274412983448862 O
atom_frac 0.6666551917560841 0.5833332692793158 0.2771228073962531 O
atom_frac 0.8333333433348448 0.4167496250643812 0.3055571480307810 O
atom_frac 0.6666646763458539 0.4166680823896411 0.0558870468448638 O
atom_frac 0.6666531343647633 0.4166879968256227 0.1938898708078802 O
atom_frac 0.8333333493652380 0.4166586903215505 0.1106651247897938 O
atom_frac 0.6666548800176204 0.5833333443913418 0.1391136714004970 O
atom_frac 0.8333333561219620 0.5833333270281512 0.2223420183275562 O
atom_frac 0.8333332724649032 0.5833333543065881 0.6264259613127816 Ti
atom_frac 0.6701382387110127 0.5833333848839298 0.5401782074206706 Ti
atom_frac 0.8333333486575999 0.4167425401874317 0.3745910458781451 Ti
atom_frac 0.6667144729534229 0.4151163471502294 0.4580448920168559 Ti
atom_frac 0.8333333387985652 0.5833333037267848 0.3603793376044802 O
atom_frac 0.6685390686612503 0.5833333458603946 0.6120279729573780 O
atom_frac 0.8333332924753005 0.4161735600907695 0.6400461855069404 O
atom_frac 0.6668268346899749 0.4168062696867779 0.3888478744449801 O
atom_frac 0.6694618448027742 0.4153417048259364 0.5268043412841754 O
atom_frac 0.8333333393700924 0.4157214291982181 0.4435785665848950 O
atom_frac 0.6671555623847054 0.5833333828407357 0.4723423173589054 O
atom_frac 0.8333332832474901 0.5833334059624874 0.5568352135866858 O
atom_frac 0.8333333308766451 0.5833333304151966 0.9584379440315122 Ti
atom_frac 0.6666616749245037 0.5833332900714063 0.8752084643581735 Ti
atom_frac 0.8333333349796834 0.4160096914633906 0.7089041825133269 Ti
atom_frac 0.6665118098526974 0.4166938524285382 0.7919600556263450 Ti
atom_frac 0.8333333273494721 0.5833333576218174 0.6948889581904711 O
atom_frac 0.6666646643589601 0.5833333386081597 0.9442048217026677 O
atom_frac 0.8333333400326552 0.4166746296303670 0.9726643394687884 O
atom_frac 0.6665611619600670 0.4166332490867096 0.7229980811743992 O
atom_frac 0.6665538236984992 0.4166953704041734 0.8609826072565018 O
atom_frac 0.8333333316882884 0.4163971727489726 0.7778465057312557 O
atom_frac 0.6666172441630165 0.5833333091090118 0.8061820872136891 O
atom_frac 0.8333333354139635 0.5833333037008672 0.8894295462852490 O
atom_frac 0.8333333767669011 0.9165226660658248 0.2913107644568988 Ti
atom_frac 0.6666223320915046 0.9166511126286599 0.2081262325924870 Ti
atom_frac 0.8333333474368273 0.7499996414925719 0.0416664483910311 Ti
atom_frac 0.6666656135001351 0.7500061186642973 0.1248908620935872 Ti
atom_frac 0.8333332988278999 0.9166642710685399 0.0274397575863344 O
atom_frac 0.6666544115019156 0.9164230037958876 0.2771128083388116 O
atom_frac 0.8333333506098350 0.7499169775838040 0.3055571480948706 O
atom_frac 0.6666646708511366 0.7499985760897394 0.0558870639354206 O
atom_frac 0.6666531409236398 0.7499786684376791 0.1938898976555390 O
atom_frac 0.8333333512466724 0.7500079536780142 0.1106651244676703 O
atom_frac 0.6666470948334242 0.9166657916249318 0.1391189982010057 O
atom_frac 0.8333333558651550 0.9166453190883512 0.2223148323539900 O
atom_frac 0.8333333064320583 0.9167902127105387 0.6255114327978636 Ti
atom_frac 0.6671939421966007 0.9171938060434777 0.5416667637709903 Ti
atom_frac 0.8333333405911250 0.7499240461202715 0.3745910464521261 Ti
atom_frac 0.6667144791816241 0.7515504380507174 0.4580449015352303 Ti
atom_frac 0.8333333448189724 0.9166297696340094 0.3602803988510387 O
atom_frac 0.6672225871277897 0.9162518055148319 0.6110236750229030 O
atom_frac 0.8333332938634281 0.7504931556092234 0.6400461877086336 O
atom_frac 0.6668268365960832 0.7498603073681590 0.3888478768669149 O
atom_frac 0.6694618367276544 0.7513250689791696 0.5268043412996662 O
atom_frac 0.8333333423036040 0.7509453387574302 0.4435785672637976 O
atom_frac 0.6662523392149684 0.9172228072422950 0.4723093083298109 O
atom_frac 0.8333333120110268 0.9181936845143652 0.5564416404977255 O
atom_frac 0.8333333301037134 0.9166595894919609 0.9584335059177979 Ti
atom_frac 0.6666511232672517 0.9166221618827861 0.8752074442161972 Ti
atom_frac 0.8333333353381858 0.7506569738321532 0.7089041818463039 Ti
atom_frac 0.6665118118201473 0.7499727854835507 0.7919600553561575 Ti
atom_frac 0.8333333395617112 0.9169268579166472 0.6946497601319915 O
atom_frac 0.6666658063485054 0.9166470579516239 0.9442140903251441 O
atom_frac 0.8333333491253133 0.7499920199616507 0.9726643386652140 O
atom_frac 0.6665611653317824 0.7500334793150274 0.7229980828231014 O
atom_frac 0.6665538148935078 0.7499712413283767 0.8609826070139496 O
atom_frac 0.8333333326631862 0.7502694295143457 0.7778465098915478 O
atom_frac 0.6664230397752094 0.9166543424118606 0.8062202574517431 O
atom_frac 0.8333333354634157 0.9165835137607468 0.8894278775482736 O
