#=======================================================
# FHI-aims file: ./geometry.in
# Created using the Atomic Simulation Environment (ASE)
# Thu Jul 18 03:29:43 2024
#=======================================================
lattice_vector 11.3550000000000004 0.0000000000000000 0.0000000000000000 
lattice_vector 0.0000000000000000 11.3550000000000004 0.0000000000000000 
lattice_vector 0.0000000000000000 0.0000000000000000 28.5398999999999958 
atom_frac 0.1667032977072065 0.2496313417728912 0.2911455309868632 Ti
atom_frac -0.0001239831064414 0.2499833545105749 0.2080359309529642 Ti
atom_frac 0.1666343013120894 0.0833333580782851 0.0416713200703251 Ti
atom_frac -0.0000180407240194 0.0833333464501886 0.1248490080699435 Ti
atom_frac 0.1666219649755523 0.2499856221463929 0.0274226326255988 O
atom_frac -0.0000150172255565 0.2497984544168134 0.2772393202662835 O
atom_frac 0.1668275959195299 0.0833333604087557 0.3057479501119366 O
atom_frac -0.0000127912218162 0.0833333585258891 0.0559119076612229 O
atom_frac -0.0000318106826185 0.0833333434372399 0.1939684077830868 O
atom_frac 0.1666691908995071 0.0833333401887434 0.1106925581441498 O
atom_frac -0.0000076002398179 0.2499883754482508 0.1391792977428278 O
atom_frac 0.1666901172521153 0.2499196982892920 0.2224620416996402 O
atom_frac 0.1657921993025798 0.2495403357714439 0.6250591027538587 Ti
atom_frac -0.0001488473434939 0.2498511786537592 0.5416668171605148 Ti
atom_frac 0.1651283511087800 0.0833334218229764 0.3745529994541990 Ti
atom_frac -0.0002698175144587 0.0833332897466948 0.4583165145098143 Ti
atom_frac 0.1660465180085139 0.2499751278168623 0.3605600629628497 O
atom_frac 0.0000876795017204 0.2504569637160728 0.6108139671856598 O
atom_frac 0.1660915623079353 0.0833332438715223 0.6393658795327138 O
atom_frac -0.0001813303773390 0.0833333121862486 0.3892113623905619 O
atom_frac 0.0004863685285408 0.0833332818103732 0.5273972331675885 O
atom_frac 0.1667667749832447 0.0833333395643845 0.4439117944014547 O
atom_frac 0.0004567444120874 0.2500876747974548 0.4725190435711762 O
atom_frac 0.1668811418502275 0.2508611360583757 0.5560017690092678 O
atom_frac 0.1666170790745863 0.2499831115320055 0.9584833466045027 Ti
atom_frac -0.0000166778710077 0.2498761666276051 0.8752977492640901 Ti
atom_frac 0.1665700778225662 0.0833333116460236 0.7089868115987786 Ti
atom_frac -0.0003144642988681 0.0833333811625993 0.7920608655738196 Ti
atom_frac 0.1667568378186930 0.2497394649600832 0.6942927493074690 O
atom_frac -0.0000115817633636 0.2499924222368361 0.9441538076302738 O
atom_frac 0.1666040535170527 0.0833333584428024 0.9726284379557462 O
atom_frac -0.0000194593782089 0.0833331975459838 0.7227665486357379 O
atom_frac -0.0000091854735126 0.0833334353922502 0.8608844672488039 O
atom_frac 0.1666066211182113 0.0833334763324250 0.7775540417139089 O
atom_frac -0.0002018965365019 0.2499851360500556 0.8060937109041993 O
atom_frac 0.1666569311796504 0.2500075621147975 0.8893615467312490 O
atom_frac 0.1667684135408213 0.5833333209000117 0.2909933064523589 Ti
atom_frac -0.0002098192881985 0.5833333378690136 0.2079864553047664 Ti
atom_frac 0.1666258645696037 0.4166258542206853 0.0416668597432038 Ti
atom_frac -0.0000168518138914 0.4166170458012737 0.1248497147837784 Ti
atom_frac 0.1666105800858793 0.5833333557686690 0.0274416191572655 O
atom_frac -0.0000196454811199 0.5833333665885314 0.2772312092836115 O
atom_frac 0.1661918986995709 0.4166885729969427 0.3056863111800415 O
atom_frac -0.0000143168754686 0.4166217241503701 0.0559110278924241 O
atom_frac 0.0000072001604598 0.4166569497121801 0.1939721335838574 O
atom_frac 0.1666666309398101 0.4166195408063603 0.1106939710901867 O
atom_frac -0.0000480995906770 0.5833333419841632 0.1391686042335154 O
atom_frac 0.1666798210995870 0.5833333330394287 0.2224000426105240 O
atom_frac 0.1612381063384652 0.5833331633452417 0.6281034889566504 Ti
atom_frac -0.0036321430530404 0.5833332635492344 0.5407122773136926 Ti
atom_frac 0.1639426878305019 0.4167564289994223 0.3740730246805010 Ti
atom_frac -0.0004595365788309 0.4157923088302624 0.4582739027173057 Ti
atom_frac 0.1671317996229557 0.5833333543052105 0.3605091433567676 O
atom_frac 0.0006001252587754 0.5833332314352394 0.6105530799958191 O
atom_frac 0.1676655357204689 0.4166588600152042 0.6395407334731028 O
atom_frac -0.0002605843890897 0.4167567255548371 0.3890409144616938 O
atom_frac 0.0008608671311334 0.4168811025940838 0.5273318325191824 O
atom_frac 0.1666589278339148 0.4176658751316853 0.4437922843710551 O
atom_frac -0.0008406019992443 0.5833332904999149 0.4726266395541092 O
atom_frac 0.1698524543195929 0.5833332585560070 0.5552308883459321 O
atom_frac 0.1665772566383543 0.5833333408208026 0.9585293023834973 Ti
atom_frac 0.0000024851441317 0.5833334998838166 0.8753309743483988 Ti
atom_frac 0.1667563690776941 0.4139429961852285 0.7092605392653568 Ti
atom_frac -0.0003685541002567 0.4167034610044497 0.7921874746062054 Ti
atom_frac 0.1650225763485615 0.5833332810463495 0.6944262128538169 O
atom_frac -0.0000215607755667 0.5833333536330043 0.9441560103205487 O
atom_frac 0.1666197766055975 0.4166667040710435 0.9726391554423900 O
atom_frac -0.0000247983744189 0.4160476665433694 0.7227735717882121 O
atom_frac -0.0000802873225214 0.4166901678818832 0.8608716250453009 O
atom_frac 0.1666885862170534 0.4161917494838407 0.7776467015136237 O
atom_frac 0.0002244467057506 0.5833334291565175 0.8060523082010188 O
atom_frac 0.1666638239774648 0.5833334698627537 0.8893881160753715 O
atom_frac 0.1667033020387402 0.9170353183568366 0.2911455353227148 Ti
atom_frac -0.0001239757012917 0.9166833267230546 0.2080359306022267 Ti
atom_frac 0.1666258650237768 0.7500408495719196 0.0416668612532829 Ti
atom_frac -0.0000168454678380 0.7500496334858788 0.1248497169284494 Ti
atom_frac 0.1666219574140882 0.9166810934001984 0.0274226289243956 O
atom_frac -0.0000150031308887 0.9168682614072879 0.2772393269457394 O
atom_frac 0.1661918973340596 0.7499781467229624 0.3056863169146558 O
atom_frac -0.0000143103940547 0.7500449873520191 0.0559110265001599 O
atom_frac 0.0000071850664432 0.7500097314358265 0.1939721313145703 O
atom_frac 0.1666666303143459 0.7500471421737970 0.1106939734172611 O
atom_frac -0.0000076154670721 0.9166783106610572 0.1391793021041298 O
atom_frac 0.1666901059448395 0.9167469538009302 0.2224620369494003 O
atom_frac 0.1657922316546460 0.9171259809718632 0.6250590893706665 Ti
atom_frac -0.0001488379196941 0.9168153493376104 0.5416668187996683 Ti
atom_frac 0.1639426948854144 0.7499104078328336 0.3740730232904349 Ti
atom_frac -0.0004595338106670 0.7508742955647276 0.4582739009992476 Ti
atom_frac 0.1660466834451402 0.9166915960618329 0.3605600661157084 O
atom_frac 0.0000876921455677 0.9162094831933763 0.6108139609165593 O
atom_frac 0.1676655408702211 0.7500076106366436 0.6395407248003981 O
atom_frac -0.0002605661754956 0.7499098611423567 0.3890409090446397 O
atom_frac 0.0008608537179759 0.7497854585295488 0.5273318348502013 O
atom_frac 0.1666589233253125 0.7490008781107552 0.4437922903619791 O
atom_frac 0.0004567964754072 0.9165788929969158 0.4725190421490231 O
atom_frac 0.1668811424891031 0.9158054427283557 0.5560017556844483 O
atom_frac 0.1666170795276240 0.9166835699591626 0.9584833500901927 Ti
atom_frac -0.0000166868297220 0.9167908417643601 0.8752977536647113 Ti
atom_frac 0.1667563730782418 0.7527237088977983 0.7092605425752178 Ti
atom_frac -0.0003685518156475 0.7499632795527055 0.7921874749955156 Ti
atom_frac 0.1667569109342220 0.9169270682425090 0.6942927424261717 O
atom_frac -0.0000115792589433 0.9166742693871635 0.9441538072970203 O
atom_frac 0.1666197733090868 0.7500000140391813 0.9726391552339275 O
atom_frac -0.0000247880097538 0.7506189217082067 0.7227735697549091 O
atom_frac -0.0000802866481151 0.7499767053698793 0.8608716217111281 O
atom_frac 0.1666885758104411 0.7504750703395925 0.7776467068738367 O
atom_frac -0.0002020010496783 0.9166817356426107 0.8060937040446474 O
atom_frac 0.1666569255293563 0.9166593957643751 0.8893615426826623 O
atom_frac 0.4999633629873872 0.2496313356040164 0.2911455353579359 Ti
atom_frac 0.3333333280211914 0.2500024311019378 0.2080027357396810 Ti
atom_frac 0.5000323695679013 0.0833333610510167 0.0416713258676355 Ti
atom_frac 0.3333333363290411 0.0833333315071605 0.1248268545775764 Ti
atom_frac 0.5000447156457477 0.2499856192046389 0.0274226399449761 O
atom_frac 0.3333333304590827 0.2502242489127138 0.2772808138789495 O
atom_frac 0.4998390850382217 0.0833333599405839 0.3057479543769087 O
atom_frac 0.3333333356694648 0.0833333530567345 0.0559039446271623 O
atom_frac 0.3333333241992659 0.0833333320113176 0.1939796976613826 O
atom_frac 0.4999974801020003 0.0833333416552542 0.1106925613554779 O
atom_frac 0.3333333287020609 0.2499783500034614 0.1391771202411576 O
atom_frac 0.4999765399276870 0.2499196970258323 0.2224620433831328 O
atom_frac 0.5008745423118925 0.2495403392271795 0.6250590975315330 Ti
atom_frac 0.3333333844970692 0.2463675934184340 0.5426213482200516 Ti
atom_frac 0.5015382490304965 0.0833334215314887 0.3745530086002554 Ti
atom_frac 0.3333333129663858 0.0833331342959424 0.4567660736691983 Ti
atom_frac 0.5006200699572056 0.2499751227742262 0.3605600669791391 O
atom_frac 0.3333333576692573 0.2491596861855222 0.6107063494129632 O
atom_frac 0.5005751965973582 0.0833332436013511 0.6393658775750878 O
atom_frac 0.3333333002948111 0.0833334067807243 0.3892245403677758 O
atom_frac 0.3333333470925399 0.0833332324004108 0.5276503595320996 O
atom_frac 0.4998998225265085 0.0833333392971795 0.4439118011931387 O
atom_frac 0.3333332764582869 0.2505994936636009 0.4727796553617545 O
atom_frac 0.4997855625918308 0.2508611515194212 0.5560017675322503 O
atom_frac 0.5000495999928865 0.2499831082430530 0.9584833513330768 Ti
atom_frac 0.3333333414438124 0.2497903843244541 0.8753472435237640 Ti
atom_frac 0.5000966244388092 0.0833333113126662 0.7089868050841907 Ti
atom_frac 0.3333333583095108 0.0833333507088547 0.7920708262638199 Ti
atom_frac 0.4999098713080309 0.2497394642479169 0.6942927449962334 O
atom_frac 0.3333333411049336 0.2499520582284323 0.9441644320526418 O
atom_frac 0.5000626256450711 0.0833333609212302 0.9726284435165846 O
atom_frac 0.3333333561217496 0.0833332621136554 0.7228060480592678 O
atom_frac 0.3333333393216100 0.0833334399540330 0.8609064792914985 O
atom_frac 0.5000600808316655 0.0833334758024870 0.7775540450955662 O
atom_frac 0.3333333485930484 0.2499804570223223 0.8061018767462553 O
atom_frac 0.5000097494651631 0.2500075610223980 0.8893615494389908 O
atom_frac 0.4998982545971153 0.5833333210453548 0.2909933131102979 Ti
atom_frac 0.3333333319343794 0.5833333283931944 0.2078810662811923 Ti
atom_frac 0.5000408105626871 0.4166258516497646 0.0416668629779390 Ti
atom_frac 0.3333333401507012 0.4165772231700573 0.1248037724180252 Ti
atom_frac 0.5000561004777840 0.5833333559378227 0.0274416228542923 O
atom_frac 0.3333333321670306 0.5833333446402079 0.2772046573963723 O
atom_frac 0.5004747753253437 0.4166885730986101 0.3056863180827532 O
atom_frac 0.3333333401182153 0.4166103781309831 0.0558921562034009 O
atom_frac 0.3333333205426305 0.4166638439302732 0.1939455651543141 O
atom_frac 0.5000000431622649 0.4166195413561036 0.1106939785440501 O
atom_frac 0.3333333304009645 0.5833333346988712 0.1391296102271405 O
atom_frac 0.4999868391200267 0.5833333349928103 0.2224000456017919 O
atom_frac 0.5054285737910582 0.5833331642381473 0.6281034700311215 Ti
atom_frac 0.3333332862500252 0.5833332162216797 0.5416663242224098 W
atom_frac 0.5027238923324229 0.4167564227359370 0.3740730299038487 Ti
atom_frac 0.3333333008051857 0.4112373084895917 0.4552292660649870 Ti
atom_frac 0.4995347780903684 0.5833333540576895 0.3605091534543075 O
atom_frac 0.3333333159721252 0.5833332240425707 0.6096603826502771 O
atom_frac 0.4990011836412594 0.4166588567547032 0.6395407272114307 O
atom_frac 0.3333332972919563 0.4150217228871749 0.3889070484278847 O
atom_frac 0.3333333204592898 0.4198522731032401 0.5281023113751953 O
atom_frac 0.5000076666998745 0.4176658022814300 0.4437922926507536 O
atom_frac 0.3333333202305724 0.5833332287613875 0.4736723898996638 O
atom_frac 0.4968141585758945 0.5833332586600063 0.5552308953648888 O
atom_frac 0.5000894234258089 0.5833333390810992 0.9585293065547575 Ti
atom_frac 0.3333333403416040 0.5833335019686645 0.8754526627557204 Ti
atom_frac 0.4999102982520731 0.4139430041688635 0.7092605306681415 Ti
atom_frac 0.3333333492455532 0.4167685090377859 0.7923397133840807 Ti
atom_frac 0.5016440870298049 0.5833332818052448 0.6944262047173013 O
atom_frac 0.3333333423694703 0.5833333630075735 0.9442033732739153 O
atom_frac 0.5000469074388084 0.4166667013979710 0.9726391618313600 O
atom_frac 0.3333333431821944 0.4171328178680296 0.7228244851332529 O
atom_frac 0.3333333397359272 0.4166799440547214 0.8609336037463505 O
atom_frac 0.4999781011876244 0.4161917605282621 0.7776466984657913 O
atom_frac 0.3333333386388280 0.5833334437954570 0.8061283724589567 O
atom_frac 0.5000028565003271 0.5833334636800822 0.8893881173135251 O
atom_frac 0.4999633595996343 0.9170353238455351 0.2911455393030528 Ti
atom_frac 0.3333333293719117 0.9166642377348783 0.2080027357068301 Ti
atom_frac 0.5000408079895303 0.7500408490857214 0.0416668611000048 Ti
atom_frac 0.3333333399858207 0.7500894476666402 0.1248037757740893 Ti
atom_frac 0.5000447195019510 0.9166810960710423 0.0274226327641466 O
atom_frac 0.3333333311458145 0.9164424537200511 0.2772808040574057 O
atom_frac 0.5004747762438694 0.7499781467076867 0.3056863239957024 O
atom_frac 0.3333333385978904 0.7500563212527416 0.0558921565836067 O
atom_frac 0.3333333251860131 0.7500028256756961 0.1939455625260901 O
atom_frac 0.5000000431734698 0.7500471401789038 0.1106939768217510 O
atom_frac 0.3333333323682924 0.9166883229517205 0.1391771141768544 O
atom_frac 0.4999765504241417 0.9167469530350202 0.2224620384533188 O
atom_frac 0.5008745097765764 0.9171259769075979 0.6250590838834721 Ti
atom_frac 0.3333333845472356 0.9202988778954073 0.5426213193120762 Ti
atom_frac 0.5027238856023102 0.7499104141596501 0.3740730283117260 Ti
atom_frac 0.3333333017696838 0.7554289468527290 0.4552292750315631 Ti
atom_frac 0.5006199057487444 0.9166916009603884 0.3605600699357042 O
atom_frac 0.3333333574177539 0.9175068090194949 0.6107063352525854 O
atom_frac 0.4990011794874255 0.7500076142272581 0.6395407189834550 O
atom_frac 0.3333332975731736 0.7516448281870685 0.3889070605255190 O
atom_frac 0.3333333204111962 0.7468141543420594 0.5281023185777882 O
atom_frac 0.5000076715691967 0.7490009510693845 0.4437922986161733 O
atom_frac 0.3333332764562528 0.9160669353891001 0.4727796616776699 O
atom_frac 0.4997855618190332 0.9158054271154031 0.5560017542887062 O
atom_frac 0.5000495976159685 0.9166835749092835 0.9584833546339998 Ti
atom_frac 0.3333333420183667 0.9168766204058406 0.8753472482161224 Ti
atom_frac 0.4999103026229327 0.7527237010224890 0.7092605350227973 Ti
atom_frac 0.3333333500034804 0.7498981765695228 0.7923397134058816 Ti
atom_frac 0.4999097983970254 0.9169270681659046 0.6942927382856821 O
atom_frac 0.3333333420058174 0.9167146531324367 0.9441644315474480 O
atom_frac 0.5000469064053152 0.7500000141196057 0.9726391603655846 O
atom_frac 0.3333333458456264 0.7495338903994194 0.7228244960604918 O
atom_frac 0.3333333408664580 0.7499869313232721 0.8609335968850443 O
atom_frac 0.4999781144965860 0.7504750598821389 0.7776467056171744 O
atom_frac 0.3333333473569702 0.9166864309811529 0.8061018688947469 O
atom_frac 0.5000097542169675 0.9166594029932628 0.8893615442163062 O
atom_frac 0.8333333321786530 0.2496856179465870 0.2912721688583517 Ti
atom_frac 0.6667906400318524 0.2499833516894002 0.2080359342843313 Ti
atom_frac 0.8333333415657650 0.0833333656211771 0.0416668498153492 Ti
atom_frac 0.6666847195069809 0.0833333433879716 0.1248490077297895 Ti
atom_frac 0.8333333336629164 0.2499871491687018 0.0274217512609429 O
atom_frac 0.6666816758341225 0.2497984495245840 0.2772393228003994 O
atom_frac 0.8333333351424149 0.0833333370401678 0.3058344008717733 O
atom_frac 0.6666794681713224 0.0833333576315502 0.0559119125479875 O
atom_frac 0.6666984755460622 0.0833333404446866 0.1939684116528854 O
atom_frac 0.8333333402338251 0.0833333529280598 0.1106983596685083 O
atom_frac 0.6666742799591456 0.2499883723505040 0.1391793020823682 O
atom_frac 0.8333333305887188 0.2499908581881240 0.2224491685135566 O
atom_frac 0.8333333641763505 0.2497301956384603 0.6250165897469788 Ti
atom_frac 0.6668156161573305 0.2498511752764489 0.5416668149609865 Ti
atom_frac 0.8333333084834599 0.0833333150696365 0.3746980801779016 Ti
atom_frac 0.6669364702440657 0.0833332898360850 0.4583165120618923 Ti
atom_frac 0.8333332894367129 0.2499805205030530 0.3605671121606019 O
atom_frac 0.6665790228746823 0.2504569699763397 0.6108139685079942 O
atom_frac 0.8333333611509864 0.0833332228032916 0.6392402779781662 O
atom_frac 0.6668479339095627 0.0833333121251917 0.3892113697735003 O
atom_frac 0.6661802256037749 0.0833332817401622 0.5273972370817198 O
atom_frac 0.8333333109138373 0.0833332290932461 0.4440927559730822 O
atom_frac 0.6662099282513950 0.2500876664135502 0.4725190442631658 O
atom_frac 0.8333333497990436 0.2504866763096769 0.5559364443091334 O
atom_frac 0.8333333388241728 0.2499819641930356 0.9584840764605703 Ti
atom_frac 0.6666833545913416 0.2498761963720030 0.8752977530622954 Ti
atom_frac 0.8333333175596314 0.0833332238475993 0.7086355975080825 Ti
atom_frac 0.6669811544969573 0.0833333823315088 0.7920608826436671 Ti
atom_frac 0.8333333483281482 0.2498188083137187 0.6941223050762212 O
atom_frac 0.6666782593971887 0.2499924243983219 0.9441538109115969 O
atom_frac 0.8333333386820018 0.0833333679329603 0.9726346370516170 O
atom_frac 0.6666861498682953 0.0833331975822510 0.7227665525675463 O
atom_frac 0.6666758670928137 0.0833334385980692 0.8608844728124684 O
atom_frac 0.8333333402972359 0.0833334202189028 0.7774986246789168 O
atom_frac 0.6668685856806705 0.2499851454890686 0.8060937136708961 O
atom_frac 0.8333333385838330 0.2499685878640948 0.8893653307645442 O
atom_frac 0.8333333349905062 0.5833333827464905 0.2912623043776308 Ti
atom_frac 0.6668764814065166 0.5833333415829891 0.2079864577341249 Ti
atom_frac 0.8333333380392799 0.4166343314331660 0.0416624101919911 Ti
atom_frac 0.6666835260881021 0.4166170466525830 0.1248497195848954 Ti
atom_frac 0.8333333334027652 0.5833333667204426 0.0274298752811511 O
atom_frac 0.6666863053772850 0.5833333724352282 0.2772312105009378 O
atom_frac 0.8333333348932213 0.4166066386291917 0.3057790418096875 O
atom_frac 0.6666809896214835 0.4166217236201867 0.0559110325955581 O
atom_frac 0.6666594715902645 0.4166569508200748 0.1939721370814815 O
atom_frac 0.8333333375759431 0.4166038152017223 0.1107046160448917 O
atom_frac 0.6667147803180266 0.5833333435220697 0.1391686070287378 O
atom_frac 0.8333333322011882 0.5833333332993026 0.2224272607735023 O
atom_frac 0.8333333424833539 0.5833331978482738 0.6265665543598101 Ti
atom_frac 0.6702987235357769 0.5833332633644784 0.5407122739715271 Ti
atom_frac 0.8333332920781280 0.4165700499700594 0.3743468918520304 Ti
atom_frac 0.6671261500806170 0.4157923069909224 0.4582739018041754 Ti
atom_frac 0.8333332730328326 0.5833333270792638 0.3605276293293245 O
atom_frac 0.6660665432007717 0.5833332315178872 0.6105530796478892 O
atom_frac 0.8333333552301030 0.4167669061645310 0.6394211978491745 O
atom_frac 0.6669271734548845 0.4167567268509789 0.3890409198309741 O
atom_frac 0.6658057410815152 0.4168811056681796 0.5273318285576656 O
atom_frac 0.8333333040417171 0.4160916988803597 0.4439671382749415 O
atom_frac 0.6675072491164531 0.5833332905363929 0.4726266319833654 O
atom_frac 0.8333333123030101 0.5833332930444647 0.5556835216226689 O
atom_frac 0.8333333366065282 0.5833333596471670 0.9585062138864465 Ti
atom_frac 0.6666641910143218 0.5833334903822918 0.8753309744810991 Ti
atom_frac 0.8333333477056489 0.4151289080088960 0.7087806328939993 Ti
atom_frac 0.6670352391034693 0.4167034633825826 0.7921874641915297 Ti
atom_frac 0.8333333547799394 0.5833332504008067 0.6941089152159025 O
atom_frac 0.6666882356943656 0.5833333498352653 0.9441560123343141 O
atom_frac 0.8333333334175302 0.4166692903804103 0.9726405554410368 O
atom_frac 0.6666914896827997 0.4160476839816796 0.7227735699821461 O
atom_frac 0.6667469632020872 0.4166901715183154 0.8608716245279678 O
atom_frac 0.8333333456942988 0.4168278850218484 0.7775850589228932 O
atom_frac 0.6664422471776595 0.5833334263635536 0.8060523092066996 O
atom_frac 0.8333333368415267 0.5833334158499546 0.8893540428552561 O
atom_frac 0.8333333322916363 0.9169811466073092 0.2912721642866025 Ti
atom_frac 0.6667906313675936 0.9166833265356528 0.2080359332147366 Ti
atom_frac 0.8333333399312461 0.7500323800314330 0.0416624104583727 Ti
atom_frac 0.6666835209417182 0.7500496355496460 0.1248497154702558 Ti
atom_frac 0.8333333372836291 0.9166795752277425 0.0274217461980449 O
atom_frac 0.6666816614735278 0.9168682604972691 0.2772393281733036 O
atom_frac 0.8333333356625909 0.7500600566684820 0.3057790466413762 O
atom_frac 0.6666809848438129 0.7500449887105892 0.0559110276734160 O
atom_frac 0.6666594824054684 0.7500097335150269 0.1939721332774979 O
atom_frac 0.8333333384651457 0.7500628708022432 0.1107046076956858 O
atom_frac 0.6666742916957327 0.9166783123751716 0.1391793022490821 O
atom_frac 0.8333333318027702 0.9166758381131280 0.2224491815639964 O
atom_frac 0.8333333648615916 0.9169361634989192 0.6250165747535876 Ti
atom_frac 0.6668156073513856 0.9168153527043007 0.5416668165087344 Ti
atom_frac 0.8333332918255952 0.7500965811011446 0.3743468909762382 Ti
atom_frac 0.6671261480462747 0.7508742975538661 0.4582739004912536 Ti
atom_frac 0.8333332885959885 0.9166861302478388 0.3605671216496436 O
atom_frac 0.6665790106947578 0.9162094769112070 0.6108139622244221 O
atom_frac 0.8333333543904370 0.7498995519731777 0.6394211833391820 O
atom_frac 0.6669271554029069 0.7499098597771153 0.3890409144948593 O
atom_frac 0.6658057547639277 0.7497854555126059 0.5273318309038981 O
atom_frac 0.8333333041858992 0.7505749316973527 0.4439671324980130 O
atom_frac 0.6662098764413816 0.9165789013556191 0.4725190428705339 O
atom_frac 0.8333333501822328 0.9161799235159612 0.5559364478276679 O
atom_frac 0.8333333402706724 0.9166847521013841 0.9584840811161605 Ti
atom_frac 0.6666833629634449 0.9167908217229070 0.8752977581470821 Ti
atom_frac 0.8333333394343121 0.7515376133266928 0.7087806398714084 Ti
atom_frac 0.6670352358473203 0.7499632761312057 0.7921874729321787 Ti
atom_frac 0.8333333482043385 0.9168476479870231 0.6941223030932550 O
atom_frac 0.6666782559330401 0.9166742709918205 0.9441538108850702 O
atom_frac 0.8333333377057853 0.7499974332947462 0.9726405446705354 O
atom_frac 0.6666914765059628 0.7506189043219863 0.7227735691195950 O
atom_frac 0.6667469613275813 0.7499766985444846 0.8608716234081599 O
atom_frac 0.8333333426239402 0.7498387896777854 0.7775850514519166 O
atom_frac 0.6668686913356295 0.9166817290490297 0.8060937083378529 O
atom_frac 0.8333333394445254 0.9166983550213351 0.8893653363999422 O
