#=======================================================
# FHI-aims file: ./geometry.in
# Created using the Atomic Simulation Environment (ASE)
# Wed Jul 17 15:27:48 2024
#=======================================================
lattice_vector 13.7870999999999988 0.0000000000000000 0.0000000000000000 
lattice_vector 0.0000000000000000 13.7870999999999988 0.0000000000000000 
lattice_vector 0.0000000000000000 0.0000000000000000 8.8766999999999996 
atom_frac 0.1676480106929416 0.1676442558202657 0.1643852613229158 Ti
atom_frac 0.0000009441977314 -0.0000010108631955 -0.0000000078956964 Ti
atom_frac 0.0646885274407683 0.2685298574486533 0.1667307213091016 O
atom_frac 0.2685272644584166 0.0646854730376323 0.1667306637224541 O
atom_frac 0.1018643711314971 0.1018663890846264 0.0000000386986530 O
atom_frac 0.2309324850643400 0.2309290858113264 -0.0000000650103894 O
atom_frac 0.1638212953673361 0.1638319272898074 0.5000002204165775 Ti
atom_frac 0.0000001430116208 0.0000008131498999 0.3284521630948395 Ti
atom_frac 0.0647123396681493 0.2679132082001055 0.5000000280547793 O
atom_frac 0.2679113073000674 0.0647086713892655 0.4999999521883516 O
atom_frac 0.1014970348923772 0.1014993649121748 0.3335979362028847 O
atom_frac 0.2309081257861278 0.2309051050149818 0.3331182254027182 O
atom_frac 0.1676466390128375 0.1676433475573672 0.8356150736612413 Ti
atom_frac -0.0000018945012857 0.0000010176267081 0.6715478047014088 Ti
atom_frac 0.0646884698780806 0.2685297878096831 0.8332692963704051 O
atom_frac 0.2685271707293412 0.0646853505306642 0.8332693243858208 O
atom_frac 0.1014970035456501 0.1014993783322503 0.6664021187480640 O
atom_frac 0.2309080824375364 0.2309050419180439 0.6668818190230116 O
atom_frac 0.1704054930561727 0.4993057127249461 0.1690952963778859 Ti
atom_frac 0.0008558973388714 0.3406011889732501 0.0000001403513235 Ti
atom_frac 0.0646265973077692 0.6022673075701459 0.1671457982754135 O
atom_frac 0.2683433266716485 0.3980277859031402 0.1659228188516255 O
atom_frac 0.1013373064437590 0.4358287402573306 0.0000000043839904 O
atom_frac 0.2316262929287456 0.5648453788074543 -0.0000000539835528 O
atom_frac 0.1593490577034731 0.5017683083228478 0.4999998997980589 Ti
atom_frac -0.0001107944317646 0.3297296924023820 0.3306332905912331 Ti
atom_frac 0.0640921656046314 0.6015450192450419 0.4999999625917945 O
atom_frac 0.2687497286882679 0.3971761561110664 0.4999999900106278 O
atom_frac 0.1022292192577522 0.4351130686031321 0.3331084747554721 O
atom_frac 0.2310817652852919 0.5646988832801842 0.3329769799121338 O
atom_frac 0.1704054973419569 0.4993059506328733 0.8309048211682373 Ti
atom_frac -0.0001105687193220 0.3297300276971186 0.6693665530615258 Ti
atom_frac 0.0646265787140633 0.6022672338565771 0.8328541932235438 O
atom_frac 0.2683433491748103 0.3980278321662956 0.8340771078267590 O
atom_frac 0.1022292024086239 0.4351129905597245 0.6668914414407863 O
atom_frac 0.2310816529928340 0.5646989521754909 0.6670229963519874 O
atom_frac 0.1686809594211092 0.8313192927852044 0.1628441005688408 Ti
atom_frac -0.0008555147567260 0.6593988570647148 0.0000001059593742 Ti
atom_frac 0.0645933608436543 0.9354091208020602 0.1669287196396265 O
atom_frac 0.2687396274407013 0.7312573612879981 0.1670849896381917 O
atom_frac 0.1027697716065532 0.7687361992179355 -0.0000000187567418 O
atom_frac 0.2312666005325432 0.8972272819756201 -0.0000000393614318 O
atom_frac 0.1626394382503888 0.8373527322983326 0.5000001854239099 Ti
atom_frac 0.0001109522191189 0.6702704819659588 0.3306335103403727 Ti
atom_frac 0.0650507992195670 0.9349507432933402 0.4999999411320133 O
atom_frac 0.2700165149004900 0.7299801387327658 0.4999999027982340 O
atom_frac 0.1019651871481875 0.7684537858363318 0.3339637656571701 O
atom_frac 0.2315483923504049 0.8980319366655448 0.3339634119652477 O
atom_frac 0.1686790826479664 0.8313197851640900 0.8371562111975102 Ti
atom_frac 0.0001104631617249 0.6702698426329400 0.6693663482212641 Ti
atom_frac 0.0645933533566534 0.9354090367869754 0.8330712687024918 O
atom_frac 0.2687395509171668 0.7312573380911085 0.8329149914353308 O
atom_frac 0.1019651791520356 0.7684537484460598 0.6660361693535489 O
atom_frac 0.2315483869670059 0.8980319048592196 0.6660364705682833 O
atom_frac 0.4993048421524978 0.1703977201071353 0.1691030215342177 Ti
atom_frac 0.3406038621930849 0.0008524429241155 -0.0000001388367248 Ti
atom_frac 0.3980306768385024 0.2683451860947735 0.1659224010838990 O
atom_frac 0.6022640509848970 0.0646244323706185 0.1671453794697644 O
atom_frac 0.4358263319898866 0.1013391381800729 -0.0000000108623552 O
atom_frac 0.5648490280247110 0.2316242821324072 -0.0000000091287001 O
atom_frac 0.5017701512618536 0.1593522901938868 0.5000000154325781 Ti
atom_frac 0.3297216845618531 -0.0001132594938724 0.3306405185449891 Ti
atom_frac 0.3971791868704440 0.2687524771670577 0.5000000341360641 O
atom_frac 0.6015430665178499 0.0640895165201866 0.4999999833184558 O
atom_frac 0.4351112067752415 0.1022324436779976 0.3331079573723950 O
atom_frac 0.5647018681224957 0.2310791691114829 0.3329769546734064 O
atom_frac 0.4993044398042130 0.1703973961590579 0.8308969898392375 Ti
atom_frac 0.3297212742091530 -0.0001135969979308 0.6693596657747288 Ti
atom_frac 0.3980306006063761 0.2683451590528354 0.8340775617834322 O
atom_frac 0.6022640879455025 0.0646244786879313 0.8328546397830031 O
atom_frac 0.4351111698512218 0.1022325120697552 0.6668920480729577 O
atom_frac 0.5647018389515460 0.2310791756386116 0.6670230991161719 O
atom_frac 0.5000003761832500 0.5000003494604021 0.1708071381773053 Ti
atom_frac 0.3370648934374278 0.3370595189353436 0.0000002101642518 Ti
atom_frac 0.3980625356446352 0.6019399007187854 0.1657236943281054 O
atom_frac 0.6019376116755714 0.3980599846373961 0.1657238570396026 O
atom_frac 0.4349647388492425 0.4349665922867021 -0.0000000581171838 O
atom_frac 0.5650353660177411 0.5650332629297836 0.0000000743771675 O
atom_frac 0.5000000021951132 0.4999999613098990 0.4999999909203225 Pd
atom_frac 0.3308068172366648 0.3308068154992894 0.3380893020113079 Ti
atom_frac 0.3982329339292581 0.6017689358493644 0.4999999895393867 O
atom_frac 0.6017671081995883 0.3982309307824038 0.5000000049266782 O
atom_frac 0.4341147266908886 0.4341171081440405 0.3283566230510138 O
atom_frac 0.5658853521218604 0.5658828550854201 0.3283567156713382 O
atom_frac 0.4999989946623946 0.5000002940207755 0.8291927578867122 Ti
atom_frac 0.3308059147739454 0.3308061366237424 0.6619113955468220 Ti
atom_frac 0.3980624760046620 0.6019398917053675 0.8342763175894345 O
atom_frac 0.6019375387179390 0.3980599998762033 0.8342761273816047 O
atom_frac 0.4341147052766933 0.4341170497162976 0.6716432392294980 O
atom_frac 0.5658853474760916 0.5658827881769316 0.6716433550152060 O
atom_frac 0.5006951632388493 0.8296024070856192 0.1691030645980876 Ti
atom_frac 0.3359041137530888 0.6641100579039388 -0.0000001891011580 Ti
atom_frac 0.3977359911070580 0.9353753898010454 0.1671453249277867 O
atom_frac 0.6019694031857815 0.7316547024943285 0.1659223667076537 O
atom_frac 0.4351509780467698 0.7683756437559452 -0.0000000269680176 O
atom_frac 0.5641737740879619 0.8986607203748741 0.0000000683748552 O
atom_frac 0.4982299943035965 0.8406476783281832 0.5000001479070437 Ti
atom_frac 0.3323335819311136 0.6676639930798318 0.3342587099214080 Ti
atom_frac 0.3984569990382220 0.9359103630632154 0.4999999268214723 O
atom_frac 0.6028209100480172 0.7312474509544561 0.5000000046734788 O
atom_frac 0.4352982143555724 0.7689207297391728 0.3329768883967425 O
atom_frac 0.5648889099288349 0.8977673932943795 0.3331078807119264 O
atom_frac 0.5006955104854410 0.8296023567310942 0.8308967748190775 Ti
atom_frac 0.3323323465818809 0.6676651599537933 0.6657415209073305 Ti
atom_frac 0.3977360076499871 0.9353754482164204 0.8328546323407189 O
atom_frac 0.6019693875765828 0.7316546978587490 0.8340776667575323 O
atom_frac 0.4352982043523842 0.7689207903200268 0.6670230932250494 O
atom_frac 0.5648888609625943 0.8977673945113066 0.6668920738912880 O
atom_frac 0.8313204216089154 0.1686795323229975 0.1628434756811754 Ti
atom_frac 0.6593961776542204 -0.0008527992896553 -0.0000001199657981 Ti
atom_frac 0.7312604634012829 0.2687426066952453 0.1670850509677287 O
atom_frac 0.9354064795645313 0.0645909943296795 0.1669285923381106 O
atom_frac 0.7687333727653709 0.1027727519882236 -0.0000000058010184 O
atom_frac 0.8972302101430735 0.2312637841960787 0.0000000858447266 O
atom_frac 0.8373586266817633 0.1626492941898761 0.4999998746471807 Ti
atom_frac 0.6702782875762751 0.0001133854207863 0.3306402815524659 Ti
atom_frac 0.7299837050694387 0.2700195565201892 0.5000001198109980 O
atom_frac 0.9349489258763768 0.0650495038973172 0.5000001046130916 O
atom_frac 0.7684515375013611 0.1019681050684942 0.3339635789580572 O
atom_frac 0.8980348243196649 0.2315462439439133 0.3339639097114262 O
atom_frac 0.8313197314002515 0.1686812224690601 0.8371562353591655 Ti
atom_frac 0.6702787852165603 0.0001136321695378 0.6693597734956693 Ti
atom_frac 0.7312604203635297 0.2687426202016981 0.8329149020920096 O
atom_frac 0.9354065690090605 0.0645910067639778 0.8330715053595243 O
atom_frac 0.7684515955281834 0.1019680709345162 0.6660364884414848 O
atom_frac 0.8980348211905301 0.2315462820226851 0.6660361435400379 O
atom_frac 0.8295948316239469 0.5006946208772765 0.1690952752441484 Ti
atom_frac 0.6640959713064516 0.3358900847255774 0.0000001982027514 Ti
atom_frac 0.7316568014701481 0.6019721677529770 0.1659228977901499 O
atom_frac 0.9353735592650350 0.3977326554497749 0.1671458760441061 O
atom_frac 0.7683737998751740 0.4351545878280731 0.0000000026348753 O
atom_frac 0.8986628301938687 0.5641711550024731 0.0000000438182475 O
atom_frac 0.8406509280040579 0.4982314465559116 0.4999999569858308 Ti
atom_frac 0.6676674478223861 0.3323353597057061 0.3342577366296937 Ti
atom_frac 0.7312502547832074 0.6028236877778546 0.4999999499241944 O
atom_frac 0.9359079525215613 0.3984548875830755 0.5000000166953336 O
atom_frac 0.7689183971039961 0.4353009868968427 0.3329770682218693 O
atom_frac 0.8977708672063133 0.5648868913446031 0.3331086046727371 O
atom_frac 0.8295944836158572 0.5006939760801190 0.8309048855032073 Ti
atom_frac 0.6676658649443691 0.3323362064532759 0.6657420229955975 Ti
atom_frac 0.7316567718335438 0.6019721147572998 0.8340771210337773 O
atom_frac 0.9353735240251513 0.3977326489520087 0.8328541790390288 O
atom_frac 0.7689183213591232 0.4353010200295047 0.6670230114007040 O
atom_frac 0.8977708873887295 0.5648869209594194 0.6668914462149687 O
atom_frac 0.8323532568719179 0.8323566343016968 0.1643850075107660 Ti
atom_frac 0.6629350968917440 0.6629405304466308 -0.0000001803961162 Ti
atom_frac 0.7314729019247673 0.9353145582612303 0.1667306786037795 O
atom_frac 0.9353115846862261 0.7314701091820418 0.1667306974325412 O
atom_frac 0.7690675721207307 0.7690708525821689 0.0000000320894380 O
atom_frac 0.8981358499856710 0.8981333826861981 -0.0000000548219502 O
atom_frac 0.8361784759742167 0.8361683667880619 0.4999997498049741 Ti
atom_frac 0.6691939221742815 0.6691939131543123 0.3380886859756673 Ti
atom_frac 0.7320886996563802 0.9352911898112548 0.5000000139885875 O
atom_frac 0.9352878302044404 0.7320867734419017 0.4999999939849681 O
atom_frac 0.7690919889837587 0.7690948596201401 0.3331181901552316 O
atom_frac 0.8985029028085663 0.8985006688276036 0.3335979038273661 O
atom_frac 0.8323524084829442 0.8323554015556486 0.8356147296128594 Ti
atom_frac 0.6691935682100045 0.6691929253562667 0.6619107529988906 Ti
atom_frac 0.7314727970769140 0.9353144771090692 0.8332693589829394 O
atom_frac 0.9353115497087008 0.7314700619230582 0.8332691710074096 O
atom_frac 0.7690919559446939 0.7690947746116342 0.6668818059948781 O
atom_frac 0.8985028384330014 0.8985007096786256 0.6664020749229480 O
