#=======================================================
# FHI-aims file: ./geometry.in
# Created using the Atomic Simulation Environment (ASE)
# Wed Jul 17 09:00:02 2024
#=======================================================
lattice_vector 13.7870999999999988 0.0000000000000000 0.0000000000000000 
lattice_vector 0.0000000000000000 13.7870999999999988 0.0000000000000000 
lattice_vector 0.0000000000000000 0.0000000000000000 8.8766999999999996 
atom_frac 0.1663059488650885 0.1663059361107549 0.1656607893207042 Ti
atom_frac -0.0000000190237991 -0.0000000119736833 -0.0000000019330710 Ti
atom_frac 0.0649286060159718 0.2683433513095203 0.1666337401190844 O
atom_frac 0.2683404256519561 0.0649256530025192 0.1666337211005095 O
atom_frac 0.1016621631084913 0.1016651744644207 0.0000000010418023 O
atom_frac 0.2310582658633721 0.2310553288862704 0.0000000016774759 O
atom_frac 0.1644106377891684 0.1644109915630912 0.5000000073681842 Ti
atom_frac -0.0000000117678048 -0.0000000108436167 0.3317953191462938 Ti
atom_frac 0.0646744423308158 0.2680597216556670 0.5000000007806151 O
atom_frac 0.2680568054094581 0.0646714407616157 0.5000000008763698 O
atom_frac 0.1014805445903644 0.1014835929163358 0.3332613510815682 O
atom_frac 0.2309087594367537 0.2309057691800886 0.3335460888025018 O
atom_frac 0.1663059594169451 0.1663059457779852 0.8343392104532553 Ti
atom_frac -0.0000000110466186 -0.0000000098566043 0.6682046888393068 Ti
atom_frac 0.0649286065989178 0.2683433526295440 0.8333662628727895 O
atom_frac 0.2683404264791887 0.0649256536627460 0.8333662819729198 O
atom_frac 0.1014805453361854 0.1014835939247590 0.6667386518586778 O
atom_frac 0.2309087605197471 0.2309057702072434 0.6664539123326758 O
atom_frac 0.1662742975543166 0.5002470906293945 0.1666509612298672 Ti
atom_frac 0.0002559996740191 0.3330601029762768 0.0000000010500186 Ti
atom_frac 0.0648632479341786 0.6021812613740679 0.1666630604145949 O
atom_frac 0.2680520519406338 0.3974330395183442 0.1665405926981788 O
atom_frac 0.1016328755439353 0.4354929048396319 0.0000000009174930 O
atom_frac 0.2318076137921905 0.5644801480015259 0.0000000009295327 O
atom_frac 0.1672202669598484 0.4995409280061515 0.4999999987064894 Ti
atom_frac -0.0002107948935720 0.3334648365283204 0.3336354247866998 Ti
atom_frac 0.0646971191635675 0.6021429988527601 0.5000000008383348 O
atom_frac 0.2684971670703085 0.3978819943532135 0.4999999995773072 O
atom_frac 0.1019043156567293 0.4353050541720823 0.3333831515111051 O
atom_frac 0.2314803359402922 0.5649660520104117 0.3333650766045156 O
atom_frac 0.1662743014718164 0.5002470914912781 0.8333490355766112 Ti
atom_frac -0.0002107953525038 0.3334648408169454 0.6663645811883502 Ti
atom_frac 0.0648632478113891 0.6021812613644610 0.8333369413447591 O
atom_frac 0.2680520521055746 0.3974330400254853 0.8334594081581187 O
atom_frac 0.1019043151242077 0.4353050544680594 0.6666168496598862 O
atom_frac 0.2314803358579034 0.5649660519397277 0.6666349243380664 O
atom_frac 0.1665740376705490 0.8334259385120969 0.1664887882866995 Ti
atom_frac -0.0002560008519333 0.6669399119980981 0.0000000017292452 Ti
atom_frac 0.0646541487994076 0.9353488917475153 0.1666772661419172 O
atom_frac 0.2685271434986703 0.7314698877365525 0.1663612585716107 O
atom_frac 0.1017840270508483 0.7688299794406933 0.0000000010531446 O
atom_frac 0.2311730296805002 0.8982129795402438 0.0000000011122830 O
atom_frac 0.1645843345040700 0.8354155213201147 0.4999999989061136 Ti
atom_frac 0.0002108036244511 0.6665351594419765 0.3336354309818435 Ti
atom_frac 0.0646716536842703 0.9353313799477835 0.5000000014888755 O
atom_frac 0.2681157249747815 0.7318813084543039 0.5000000003596853 O
atom_frac 0.1018065751034319 0.7687829583506135 0.3332402203314063 O
atom_frac 0.2312200162406280 0.8981904631774298 0.3332401764831661 O
atom_frac 0.1665740411241672 0.8334259333044495 0.8335112089172450 Ti
atom_frac 0.0002108021039179 0.6665351581162521 0.6663645758527252 Ti
atom_frac 0.0646541481518230 0.9353488923539999 0.8333227362498093 O
atom_frac 0.2685271426268619 0.7314698884074302 0.8336387413101353 O
atom_frac 0.1018065748609136 0.7687829584616853 0.6667597815022939 O
atom_frac 0.2312200159806220 0.8981904632403067 0.6667598255794104 O
atom_frac 0.5002471006702182 0.1662742698974397 0.1666509400353637 Ti
atom_frac 0.3330601399738658 0.0002558308314959 0.0000000010597856 Ti
atom_frac 0.3974358989820518 0.2680550235977074 0.1665404839511336 O
atom_frac 0.6021783054091694 0.0648603670886700 0.1666630755882096 O
atom_frac 0.4354900078344513 0.1016358176517242 0.0000000012920466 O
atom_frac 0.5644830664209597 0.2318048177593331 0.0000000004284815 O
atom_frac 0.4995407908812391 0.1672199993230645 0.4999999984187524 Ti
atom_frac 0.3334645580778261 -0.0002108642989668 0.3336355277290460 Ti
atom_frac 0.3978848226754250 0.2685000760783387 0.5000000004278783 O
atom_frac 0.6021400528162099 0.0646942428151740 0.5000000009311830 O
atom_frac 0.4353021365430820 0.1019072923313474 0.3333831750800105 O
atom_frac 0.5649688845444756 0.2314776081157340 0.3333650879070288 O
atom_frac 0.5002471004724397 0.1662742687575621 0.8333490587373661 Ti
atom_frac 0.3334645602460014 -0.0002108670955763 0.6663644774908528 Ti
atom_frac 0.3974358988574375 0.2680550228823860 0.8334595166066461 O
atom_frac 0.6021783055742366 0.0648603670094837 0.8333369268369584 O
atom_frac 0.4353021370517187 0.1019072919092992 0.6666168263742911 O
atom_frac 0.5649688847159517 0.2314776081969139 0.6666349136566909 O
atom_frac 0.5000000509689657 0.5000000407595450 0.1634313770852695 Ti
atom_frac 0.3325837388034208 0.3325837791381431 0.0000000021585004 Ti
atom_frac 0.3981772096320655 0.6018255509913898 0.1669634508319777 O
atom_frac 0.6018227980269580 0.3981744599430828 0.1669634491868252 O
atom_frac 0.4351362439145481 0.4351391607884774 -0.0000000039475671 O
atom_frac 0.5648637736679079 0.5648608574506715 -0.0000000037296849 O
atom_frac 0.4999998939084287 0.4999999092956294 0.4999999593953541 Nb
atom_frac 0.3297661530820363 0.3297659894027394 0.3324415345603823 Ti
atom_frac 0.3975173400301663 0.6024851226933566 0.5000000003939147 O
atom_frac 0.6024826507858085 0.3975148653281996 0.5000000007451794 O
atom_frac 0.4344379552223741 0.4344407980453698 0.3311627103770926 O
atom_frac 0.5655620437080212 0.5655592001221417 0.3311627471245929 O
atom_frac 0.5000000495552601 0.5000000436785431 0.8365685604809606 Ti
atom_frac 0.3297661683370243 0.3297660018682045 0.6675584671763476 Ti
atom_frac 0.3981772092731259 0.6018255512288957 0.8330365479655404 O
atom_frac 0.6018227986798437 0.3981744591032376 0.8330365488647619 O
atom_frac 0.4344379567831893 0.4344407992917477 0.6688372857822411 O
atom_frac 0.5655620423308385 0.5655591987784482 0.6688372492199344 O
atom_frac 0.4997529068562543 0.8337257285070181 0.1666509344082517 Ti
atom_frac 0.3356884335565854 0.6643115804049906 0.0000000033494808 Ti
atom_frac 0.3978216974304827 0.9351396366462964 0.1666630772366030 O
atom_frac 0.6025640996597544 0.7319449766281806 0.1665404830002015 O
atom_frac 0.4355169342276876 0.7681951899568867 0.0000000001631695 O
atom_frac 0.5645099969656326 0.8983641823924519 0.0000000006069219 O
atom_frac 0.5004591996043309 0.8327800198400029 0.4999999958155496 Ti
atom_frac 0.3304448049084445 0.6695552816528035 0.3319420365607738 Ti
atom_frac 0.3978599516392410 0.9353057600604924 0.5000000007889990 O
atom_frac 0.6021151823716693 0.7314999307156622 0.5000000002689812 O
atom_frac 0.4350311174367368 0.7685223939640520 0.3333650906988254 O
atom_frac 0.5646978643451673 0.8980927117484172 0.3333831736318505 O
atom_frac 0.4997529106263804 0.8337257247289218 0.8333490630678171 Ti
atom_frac 0.3304448090860941 0.6695552824179610 0.6680579650274578 Ti
atom_frac 0.3978216969919984 0.9351396368804694 0.8333369248795810 O
atom_frac 0.6025640987411799 0.7319449765877556 0.8334595169015970 O
atom_frac 0.4350311175426318 0.7685223935617809 0.6666349106113252 O
atom_frac 0.5646978643162979 0.8980927122594256 0.6666168276832629 O
atom_frac 0.8334259630042772 0.1665740733228479 0.1664887895193246 Ti
atom_frac 0.6669398782128269 -0.0002558340740825 0.0000000034816496 Ti
atom_frac 0.7314728584988870 0.2685301142090752 0.1663612583806167 O
atom_frac 0.9353458522423093 0.0646511061596044 0.1666772663833897 O
atom_frac 0.7688269745054870 0.1017870232858938 0.0000000010621421 O
atom_frac 0.8982159763197520 0.2311700227386329 0.0000000014662169 O
atom_frac 0.8354156624576126 0.1645844789220163 0.5000000007832341 Ti
atom_frac 0.6665354386752386 0.0002108727419210 0.3336355344323249 Ti
atom_frac 0.7318842771390617 0.2681186964696831 0.4999999999133409 O
atom_frac 0.9353283454075461 0.0646686182324376 0.5000000014228149 O
atom_frac 0.7687799872440381 0.1018095383507532 0.3332401753816439 O
atom_frac 0.8981934283006456 0.2312170424069319 0.3332402206206666 O
atom_frac 0.8334259570352486 0.1665740775614667 0.8335112071630423 Ti
atom_frac 0.6665354352063992 0.0002108706127566 0.6663644705994924 Ti
atom_frac 0.7314728585901876 0.2685301142856099 0.8336387420265603 O
atom_frac 0.9353458522748779 0.0646511061032913 0.8333227367953396 O
atom_frac 0.7687799871626774 0.1018095381747633 0.6667598265409037 O
atom_frac 0.8981934279038661 0.2312170421501911 0.6667597813037249 O
atom_frac 0.8337256996936435 0.4997529165559684 0.1666509572387727 Ti
atom_frac 0.6643115767946832 0.3356884056619619 0.0000000016003913 Ti
atom_frac 0.7319479491156385 0.6025669578083473 0.1665405921883937 O
atom_frac 0.9351367563823157 0.3978187411452394 0.1666630615321427 O
atom_frac 0.7681923925865933 0.4355198513243379 0.0000000008500060 O
atom_frac 0.8983671263000286 0.5645070991802318 0.0000000012515925 O
atom_frac 0.8327797534999029 0.5004590651556087 0.4999999983800782 Ti
atom_frac 0.6695551946704806 0.3304447353773672 0.3319420497631045 Ti
atom_frac 0.7315028412927760 0.6021180089150889 0.5000000002091303 O
atom_frac 0.9353028846210696 0.3978570042855124 0.5000000005121392 O
atom_frac 0.7685196671937999 0.4350339503445730 0.3333650789917612 O
atom_frac 0.8980956898944837 0.5646949468252146 0.3333831496483496 O
atom_frac 0.8337256944012460 0.4997529178191037 0.8333490398434431 Ti
atom_frac 0.6695551876300664 0.3304447384040700 0.6680579521785497 Ti
atom_frac 0.7319479492978650 0.6025669571490387 0.8334594079336284 O
atom_frac 0.9351367564044283 0.3978187404600355 0.8333369414932245 O
atom_frac 0.7685196673641979 0.4350339506147134 0.6666349225062558 O
atom_frac 0.8980956899430582 0.5646949463349045 0.6666168513823205 O
atom_frac 0.8336940692698955 0.8336940795405293 0.1656608670331928 Ti
atom_frac 0.6674163832947452 0.6674163397065690 0.0000000039070253 Ti
atom_frac 0.7316595776644156 0.9350743492711135 0.1666337166913535 O
atom_frac 0.9350713965837917 0.7316566515460843 0.1666337359953488 O
atom_frac 0.7689417325058107 0.7689446694663934 0.0000000013197002 O
atom_frac 0.8983378408771592 0.8983348276135892 0.0000000008134903 O
atom_frac 0.8355892736122132 0.8355889171321876 0.5000000069742825 Ti
atom_frac 0.6702337575355646 0.6702339228983974 0.3324415556573035 Ti
atom_frac 0.7319431902654387 0.9353285583126887 0.5000000012192095 O
atom_frac 0.9353255571697834 0.7319402735913835 0.5000000010927307 O
atom_frac 0.7690912345897435 0.7690942246711628 0.3335460786563775 O
atom_frac 0.8985194486682759 0.8985163993587225 0.3332613527211563 O
atom_frac 0.8336940588980045 0.8336940724720052 0.8343391311664289 Ti
atom_frac 0.6702337447319923 0.6702339094333516 0.6675584436451030 Ti
atom_frac 0.7316595768753590 0.9350743486676948 0.8333662856594046 O
atom_frac 0.9350713961828615 0.7316566507750276 0.8333662670685514 O
atom_frac 0.7690912337564048 0.7690942235392040 0.6664539227417985 O
atom_frac 0.8985194477310106 0.8985163989779301 0.6667386498346431 O
