#=======================================================
# FHI-aims file: ./geometry.in
# Created using the Atomic Simulation Environment (ASE)
# Thu May  9 17:49:07 2024
#=======================================================
lattice_vector 5.0049999999999999 0.0000000000000000 0.0000000000000000 
lattice_vector 0.0000000000000000 5.2350000000000003 0.0000000000000000 
lattice_vector 0.0000000000000000 0.0000000000000000 5.0510000000000002 
atom_frac 0.2810484803650034 0.4767475789759016 0.7499982733274482 Zr
atom_frac 0.7189515219251388 0.5232524201514053 0.2500017862642608 Zr
atom_frac 0.2810484791161368 0.0232524229957997 0.2499981494002497 Zr
atom_frac 0.7189515190248899 0.9767475807060068 0.7500018626576940 Zr
atom_frac 0.1249878559477200 0.0915786169622652 0.6192345585235859 O
atom_frac 0.8750188993421297 0.9084275003415966 0.1192390646135639 O
atom_frac 0.1249786590988120 0.4084339990982827 0.3807606250693144 O
atom_frac 0.8750090720085497 0.5915862500185642 0.8807656808390374 O
atom_frac 0.8750117694480427 0.9084206996992350 0.3807653674524634 O
atom_frac 0.1249814785019964 0.0915731798898369 0.8807608604806156 O
atom_frac 0.8750215945815695 0.5915655480327123 0.6192393782635760 O
atom_frac 0.1249906705099128 0.4084142005449621 0.1192343217528349 O
atom_frac 0.4441565426281775 0.7500007540732495 0.0000012577091973 O
atom_frac 0.5558410961849989 0.2500007085028417 0.4999987777085065 O
atom_frac 0.5558434666613986 0.2499992931481421 -0.0000012213598385 O
atom_frac 0.4441588946555242 0.7499992468591983 0.5000012572974912 O
