#=======================================================
# FHI-aims file: C:\Users\amit_\OneDrive\PhD Python\DFTdevelopment\FinalBayesianTesting\Defectvalidation\self-consistent projectors\HybridSP\SCF v3 for Archer2\Rutile\OV\geometry.in
# Created using the Atomic Simulation Environment (ASE)
# Mon Jul 29 11:23:56 2024
#=======================================================
lattice_vector 13.7870999999999988 0.0000000000000000 0.0000000000000000 
lattice_vector 0.0000000000000000 13.7870999999999988 0.0000000000000000 
lattice_vector 0.0000000000000000 0.0000000000000000 8.8766999999999996 
atom 2.2447166277485091 2.2437641249070612 1.4794496225034008 Ti
atom -0.0015706089392904 -0.0017274781291971 -0.0238442743825302 Ti
atom 0.8902948090774774 3.6938762258085771 1.4794507004072295 O
atom 3.6938152703303442 0.8902872179096319 1.4794491413011162 O
atom 1.3929139610037640 1.3929418335630530 -0.0057194737891720 O
atom 3.1703577893424928 3.1703321068624839 -0.0036967297848572 O
atom 2.2767974084359106 2.2771451816936223 4.4398576925052744 Ti
atom -0.0015715263540336 -0.0017276842029004 2.9827447177307946 Ti
atom 0.8954489123630607 3.6959353656764149 4.4401455772596821 O
atom 3.6959217625405314 0.8954102453868729 4.4401096372559277 O
atom 1.3929132824466204 1.3929418488779337 2.9646193405111330 O
atom 3.1703593610476681 3.1703305062702967 2.9625961562095151 O
atom 2.2768072252917362 2.2771371363319974 7.3957414461853919 Ti
atom 0.0157546720421709 0.0162292137085865 5.9178003621834137 Ti
atom 0.8954474828270110 3.6959339583426498 7.3954545123120443 O
atom 3.6959227036955928 0.8954117654008508 7.3954889420467742 O
atom 1.4019219073913280 1.4019344907858751 5.9177997536280946 O
atom 3.1944141223063300 3.1943885328774897 5.9177997529621278 O
atom 2.3520792905703409 6.9637261990775281 1.4794497467540759 Ti
atom 0.0162064871326851 4.6296000618682447 0.0088453885743773 Ti
atom 0.8975532935786631 8.3005100307007140 1.4794511588823136 O
atom 3.6668253968160873 5.4514570844620671 1.4794496826041910 O
atom 1.4122614735282149 6.0019946535460420 -0.0049431745582671 O
atom 3.2126984341756399 7.7815496207983612 -0.0004636766564254 O
atom 2.2747681096099637 6.8658656199543158 4.4340783375666062 Ti
atom 0.0162003931286213 4.6296083656742155 2.9500526122487485 Ti
atom 0.8900187186531144 8.2978685937542860 4.4386019308721671 O
atom 3.7186539204260987 5.4934355887648181 4.4386211231855706 O
atom 1.4122581368828873 6.0019972367763668 2.9638438500587303 O
atom 3.2127013265372439 7.7815460977224307 2.9593641952349001 O
atom 2.2747665058840116 6.8658660905928022 7.4015222432324155 Ti
atom -0.0204925485506074 4.5397392166710882 5.9178009323894623 Ti
atom 0.8900179585473388 8.2978681242849799 7.3969987436603226 O
atom 3.7186575833914821 5.4934385347001484 7.3969790115171650 O
atom 1.4158489482308154 5.9956661859390481 5.9178006540896879 O
atom 3.2050353694479625 7.7804424896903823 5.9177997985839523 O
atom 2.3187299165605189 11.5877743113714882 1.4794500068896730 Ti
atom 0.0304409405075197 9.2247197218729653 -0.0030012586808975 Ti
atom 0.9105439705496925 12.9023926952676753 1.4794503983620408 O
atom 3.7309074028264337 10.0805941638410026 1.4794496653542335 O
atom 1.4177449607063557 10.5954401643824578 0.0048885236873784 O
atom 3.2065066124231789 12.3792027021289979 -0.0044974586697590 O
atom 2.3004259988347475 11.4421819444803337 4.4413287823362619 Ti
atom 0.0304413901451818 9.2247172559513047 2.9618990519361903 Ti
atom 0.8906057810317756 12.8885925024780335 4.4330330446391608 O
atom 3.7205691394906375 10.0647424615740242 4.4381451033248904 O
atom 1.4177450379513377 10.5954409354784875 2.9540123530736180 O
atom 3.2065065399209747 12.3792022892219951 2.9633979512647026 O
atom 2.3004276544335420 11.4421831037213906 7.3942707436567403 Ti
atom -0.0434901959240848 9.1464636403036117 5.9177995952981322 Ti
atom 0.8906078319613023 12.8885946278472936 7.4025683171884822 O
atom 3.7205696607341361 10.0647419464576053 7.3974542341405503 O
atom 1.4229953211710431 10.5913878126148155 5.9178007266179939 O
atom 3.1969195937370185 12.3790296450162813 5.9178010732464550 O
atom 6.9639225525159647 2.3516721676837822 1.4794499643385137 Ti
atom 4.6299833017562007 0.0158277120542298 0.0086225582073378 Ti
atom 5.4514861604312372 3.6668203239581745 1.4794497266505362 O
atom 8.3005012181104423 0.8974986182048513 1.4794494137381007 O
atom 6.0019977339314332 1.4122787683085634 -0.0049315925416313 O
atom 7.7815901696578029 3.2126664822375579 -0.0004615507070801 O
atom 6.8657344283549815 2.2750598236170099 4.4340859752118096 Ti
atom 4.6299766537308598 0.0158335107814716 2.9502777053180682 Ti
atom 5.4934837248032551 3.7187071924255894 4.4386195566833768 O
atom 8.2978419993810153 0.8899850746328769 4.4386028767244277 O
atom 6.0019965954275003 1.4122794352369912 2.9638309524978808 O
atom 7.7815905636369145 3.2126657759711348 2.9593618247304629 O
atom 6.8657340866504297 2.2750621227707435 7.4015144596479905 Ti
atom 4.5393314867577885 -0.0198368148405883 5.9177979349554635 Ti
atom 5.4934821260218811 3.7187044745684505 7.3969797769392578 O
atom 8.2978434607059093 0.8899845228448258 7.3969982385599495 O
atom 5.9956174685997654 1.4159239473967788 5.9177997351246647 O
atom 7.7804775096533199 3.2050380791343769 5.9177998713028916 O
atom 7.0032776128584127 7.0035929433881945 1.4794503103176802 Ti
atom 4.5023898117368919 4.5022249797491050 0.0192291834641534 Ti
atom 5.5215815227620606 8.3096308051747059 1.4794493727251365 O
atom 8.3095981834501043 5.5215392208609906 1.4794510343329723 O
atom 5.9561169193166190 5.9561561233634341 0.0958488706874790 O
atom 7.7581379956593608 7.7581045914774158 -0.0545827158435485 O
atom 6.7007354798542655 6.7007753652706263 4.2623879156396516 Ti
atom 4.5023905621695084 4.5022233430223944 2.9396704937453322 Ti
atom 5.5511278224855207 8.2775862108229035 4.4588389320680664 O
atom 8.2775459715257806 5.5511548200942356 4.4588534259090258 O
atom 5.9561149112630547 5.9561580698133803 2.8630510763703869 O
atom 7.7581377408642860 7.7581049280863441 3.0134830458330892 O
atom 6.7007353819713344 6.7007757925657270 7.5732120604102944 Ti
atom 4.5412613828365842 4.5416705706656249 5.9177995243959911 Ti
atom 5.5511294643039468 8.2775867945982302 7.3767593302172108 O
atom 8.2775460016734694 5.5511551399846226 7.3767460367261437 O
atom 6.0642809165209837 6.0643477899303573 5.9177996235017547 O
atom 6.9893153095199594 11.5332960847032009 1.4794499001222456 Ti
atom 4.6217789516033978 9.2355929944190915 0.0140911038939060 Ti
atom 5.5076093323798236 12.9075756848097871 1.4794488933356180 O
atom 8.2837700823607321 10.0532949071739903 1.4794498436498069 O
atom 6.0088349450179157 10.5997760033178334 -0.0038350956487714 O
atom 7.8102198393544686 12.3641894388072515 -0.0087984861809124 O
atom 6.8425201137937837 11.4778137602329018 4.4424101687621995 Ti
atom 4.6217787966791795 9.2355923335837282 2.9448096358643467 Ti
atom 5.4983440618505890 12.8994777713944710 4.4405584527788564 O
atom 8.2726155788763087 10.0278688702371461 4.4833257984284396 O
atom 6.0088345752340544 10.5997757243665962 2.9627342321038124 O
atom 7.8102190933564470 12.3641897795303493 2.9676981797927287 O
atom 6.8425223365932331 11.4778114136115121 7.3931890522570018 Ti
atom 4.5840077855296366 9.1023611084158524 5.9177999099923566 Ti
atom 5.4983453438606977 12.8994779626055394 7.3950403453285114 O
atom 8.2726160725834585 10.0278687854223367 7.3522739353347966 O
atom 5.9914053354270234 10.6071493883582697 5.9177997126326956 O
atom 7.8090758825665771 12.3660088159697654 5.9177996130462249 O
atom 11.5879425741559849 2.3184879640516503 1.4794499140616655 Ti
atom 9.2248366704641711 0.0301605894670782 -0.0029835053489341 Ti
atom 10.0806170071370786 3.7309682490964122 1.4794497272193812 O
atom 12.9023881375309504 0.9104498409695908 1.4794502613502261 O
atom 10.5954218126579107 1.4177614761045507 0.0048965131185122 O
atom 12.3792472521206793 3.2064188534863991 -0.0045250820921931 O
atom 11.4418720353329793 2.3006752289639070 4.4412400028154710 Ti
atom 9.2248389912391549 0.0301595913857267 2.9618829622762859 Ti
atom 10.0647637181693295 3.7205855767535616 4.4381587782894041 O
atom 12.8885897238708953 0.8905360187956514 4.4330397552174734 O
atom 10.5954203701738887 1.4177631044491996 2.9540046861082194 O
atom 12.3792477505666021 3.2064176364529335 2.9634256997646875 O
atom 11.4418707212025499 2.3006742576921253 7.3943600032961410 Ti
atom 9.1461225950316667 -0.0429575748275827 5.9177991464276056 Ti
atom 10.0647625644460739 3.7205852005505728 7.3974424102713270 O
atom 12.8885889533488598 0.8905350865465312 7.4025616482741254 O
atom 10.5913266452235177 1.4230131446898151 5.9178002939935794 O
atom 12.3790313168791322 3.1968983323724158 5.9178006653617601 O
atom 11.5336572142659755 6.9890208310954920 1.4794502500007884 Ti
atom 9.2354727929152443 4.6218070877687447 0.0142604925832781 Ti
atom 10.0533545904942709 8.2837767930148711 1.4794494563168774 O
atom 12.9075497579069332 5.5075333404867521 1.4794507270577040 O
atom 10.5997351972377309 6.0088662525821679 -0.0038500165750112 O
atom 12.3642377187213004 7.8101437162778344 -0.0088050878001469 O
atom 11.4778072548485781 6.8424867341864184 4.4423386108816096 Ti
atom 9.2354733338653379 4.6218049771633067 2.9446376108924377 Ti
atom 10.0278760183860207 8.2726575406735243 4.4833793307391323 O
atom 12.8994189662260581 5.4983025458701311 4.4405843128110369 O
atom 10.5997363153215822 6.0088655571997043 2.9627514840821951 O
atom 12.3642330357288177 7.8101476900884483 2.9677077296485095 O
atom 11.4778105460063991 6.8424841590460410 7.3932622829890153 Ti
atom 9.1023351541861182 4.5842497316155741 5.9177987884801357 Ti
atom 10.0278761581604048 8.2726569360372686 7.3522205089144119 O
atom 12.8994211241846415 5.4983035892509777 7.3950164795037807 O
atom 10.6070979040161184 5.9914059997787854 5.9178012735338008 O
atom 12.3660262205221532 7.8090568922338512 5.9178003370896723 O
atom 11.4114648417942366 11.4111028577036340 1.4794493931523354 Ti
atom 9.1831849475377165 9.1829478594710050 -0.0376015431121933 Ti
atom 10.0825011630945518 12.8826239684013526 1.4794511075238672 O
atom 12.8826144654168413 10.0824397786908175 1.4794504679034426 O
atom 10.5820066780307283 10.5819856280652260 -0.0291035974936699 O
atom 12.3848946715332335 12.3848281818616002 0.0351552279080668 O
atom 11.5817943657980145 11.5819869972400955 4.3875091188057782 Ti
atom 9.1831823510319950 9.1829510099396661 2.9965015834319790 Ti
atom 10.1124379652737986 12.9087205829510729 4.4365169824125958 O
atom 12.9086910163468929 10.1123882694000216 4.4365295571797416 O
atom 10.5820064150927813 10.5819858915005600 2.9880039159254115 O
atom 12.3848941117562585 12.3848291976832368 2.9237444004847024 O
atom 11.5817917108431256 11.5819895454605000 7.4480901436732774 Ti
atom 9.4128976900430281 9.4131148595538789 5.9178001375498770 Ti
atom 10.1124387941928546 12.9087200210817983 7.3990825922430217 O
atom 12.9086891638712018 10.1123857193972544 7.3990715877850910 O
atom 10.6559624285337637 10.6560301230839585 5.9177996501542154 O
atom 12.4059253216484819 12.4058839132702143 5.9178003905909069 O
