#=======================================================
# FHI-aims file: C:\Users\amit_\OneDrive\PhD Python\DFTdevelopment\Battery\LiFePO4\geometry.in
# Created using the Atomic Simulation Environment (ASE)
# Wed May 22 10:04:14 2024
#=======================================================
lattice_vector 10.3480000000000008 0.0000000000000000 0.0000000000000000 
lattice_vector 0.0000000000000000 6.0180999999999996 0.0000000000000000 
lattice_vector 0.0000000000000000 0.0000000000000000 4.6996799999999999 
atom 5.1739999999629793 -0.0000000000572480 2.3498400049674726 Li
atom -0.0000000013195023 3.0090500080048201 0.0000000018914148 Li
atom 5.1740000007368181 3.0090499993713951 2.3498399971778521 Li
atom 0.0000000016793807 0.0000000073637017 0.0000000000228135 Li
atom 7.9651717532834692 1.5045249858585041 2.4000275425306508 Fe
atom 2.7911717565425516 1.5045250018319436 4.6494924541731830 Fe
atom 2.3828282440821935 4.5135750124530807 2.2996524554246398 Fe
atom 7.5568282402062179 4.5135749979458817 0.0501875410609290 Fe
atom 6.1794705938522076 1.5045249973654253 0.3915696866109627 P
atom 1.0054705955499315 1.5045250092451314 1.9582703145081914 P
atom 4.1685294061458187 4.5135749936918437 4.3081103141291006 P
atom 9.3425294052146146 4.5135749978533788 2.7414096854226808 P
atom 6.2580017925067475 1.5045249922115957 3.5606600470568077 O
atom 1.0840017949834737 1.5045250030313573 3.4888599540967533 O
atom 4.0899982075341654 4.5135750034426234 1.1390199533995582 O
atom 9.2639982057414603 4.5135749985499745 1.2108200459212253 O
atom 9.9009021116254043 1.5045249949186863 1.4382978256567569 O
atom 4.7269021097362662 1.5045249986836546 0.9115421762916168 O
atom 0.4470978894160501 4.5135750062999733 3.2613821746153118 O
atom 5.6210978904696800 4.5135749964991287 3.7881378241656689 O
atom 6.9055706667670744 0.2809015457061673 1.0656934762981034 O
atom 1.7315706597914009 2.7281484644244340 1.2841465243760282 O
atom 3.4424293341097099 3.2899515430515192 3.6339865234237818 O
atom 8.6164293252543107 5.7371984444099891 3.4155334793371317 O
atom 3.4424293328949624 5.7371984452656788 3.6339865242032219 O
atom 8.6164293382152053 3.2899515422800634 3.4155334725018420 O
atom 6.9055706669597212 2.7281484479632465 1.0656934763365966 O
atom 1.7315706780576996 0.2809015623340484 1.2841465243996941 O
