#=======================================================
# FHI-aims file: ./geometry.in
# Created using the Atomic Simulation Environment (ASE)
# Thu May  9 17:33:53 2024
#=======================================================
lattice_vector 4.2670000000000003 0.0000000000000000 0.0000000000000000 
lattice_vector 0.0000000000000000 4.2670000000000003 0.0000000000000000 
lattice_vector 0.0000000000000000 0.0000000000000000 4.2670000000000003 
atom_frac 0.0000000000000000 0.5000000000000000 0.5000000000000000 Cu
atom_frac 0.5000000000000000 0.5000000000000000 0.0000000000000000 Cu
atom_frac 0.5000000000000000 0.0000000000000000 0.5000000000000000 Cu
atom_frac 0.0000000000000000 0.0000000000000000 0.0000000000000000 Cu
atom_frac 0.7500000000000000 0.7500000000000000 0.7500000000000000 O
atom_frac 0.2500000000000000 0.2500000000000000 0.2500000000000000 O
