#=======================================================
# FHI-aims file: ./geometry.in
# Created using the Atomic Simulation Environment (ASE)
# Wed Jul 17 14:46:09 2024
#=======================================================
lattice_vector 11.3550000000000004 0.0000000000000000 0.0000000000000000 
lattice_vector 0.0000000000000000 11.3550000000000004 0.0000000000000000 
lattice_vector 0.0000000000000000 0.0000000000000000 28.5398999999999958 
atom_frac 0.1667338056323200 0.2500482599377028 0.2918550394151112 Ti
atom_frac 0.0000794273693764 0.2500082596798708 0.2084390126628035 Ti
atom_frac 0.1666677402547211 0.0833333282423402 0.0416770875660016 Ti
atom_frac 0.0000003565335454 0.0833333387419957 0.1250558090001606 Ti
atom_frac 0.1666441082645648 0.2500015363136358 0.0273476805734031 O
atom_frac 0.0000987569210006 0.2499701713738949 0.2775011471740258 O
atom_frac 0.1669040014355597 0.0833333366669851 0.3063215891923907 O
atom_frac -0.0000075015778488 0.0833333217768873 0.0559940522560340 O
atom_frac 0.0000724331779249 0.0833333453392370 0.1941025026626736 O
atom_frac 0.1666693172635222 0.0833333499378535 0.1107150251972776 O
atom_frac 0.0000283602956821 0.2499975526448890 0.1393806781245399 O
atom_frac 0.1666947368178213 0.2499915520592707 0.2227819792563774 O
atom_frac 0.1669186668586410 0.2502428086266500 0.6250375150332163 Ti
atom_frac -0.0000625934218897 0.2499654985809983 0.5417354219348982 Ti
atom_frac 0.1677200684288568 0.0833333453130369 0.3753152114639065 Ti
atom_frac 0.0002486677618422 0.0833333578717605 0.4582893648575239 Ti
atom_frac 0.1677252423187773 0.2499929323148977 0.3609510066935829 O
atom_frac 0.0001005456002991 0.2505864338366675 0.6106832197498546 O
atom_frac 0.1665184341832411 0.0833333042097787 0.6391040555830783 O
atom_frac 0.0005805761659230 0.0833333629630319 0.3895060411857922 O
atom_frac 0.0010819098045300 0.0833333262214025 0.5274928539994600 O
atom_frac 0.1675088341655294 0.0833333100581774 0.4446638085295427 O
atom_frac -0.0000501494347813 0.2495137208645781 0.4724796896840355 O
atom_frac 0.1668934661140797 0.2518096095681563 0.5559355562171038 O
atom_frac 0.1666090491573692 0.2500049650794374 0.9583028219263580 Ti
atom_frac -0.0000006479089767 0.2500662736721326 0.8748892746516067 Ti
atom_frac 0.1665456431939119 0.0833332933749894 0.7080844684968618 Ti
atom_frac 0.0000084209696754 0.0833333210677062 0.7915334887472751 Ti
atom_frac 0.1662302536963877 0.2503823809238323 0.6938103179925300 O
atom_frac -0.0000205048985001 0.2500298840033335 0.9439469761651782 O
atom_frac 0.1666074292008690 0.0833333288042752 0.9726172795644461 O
atom_frac -0.0000232042389895 0.0833332952204903 0.7224705397458596 O
atom_frac -0.0000109827681401 0.0833333255582698 0.8605636533432692 O
atom_frac 0.1667150307388990 0.0833333284991507 0.7771511012258646 O
atom_frac 0.0001546860792845 0.2500339412838362 0.8058262632433034 O
atom_frac 0.1666624142033664 0.2499821323478492 0.8892432099334543 O
atom_frac 0.1666941710102132 0.5833333471287965 0.2919139654295349 Ti
atom_frac 0.0001739606287346 0.5833333185704253 0.2084415577282077 Ti
atom_frac 0.1666732536841937 0.4166707069258149 0.0416826857090341 Ti
atom_frac -0.0000088535760539 0.4166708023729824 0.1250515841015306 Ti
atom_frac 0.1666394751447718 0.5833333338404794 0.0273511236811006 O
atom_frac 0.0000912326452897 0.5833333536693892 0.2774782458229980 O
atom_frac 0.1670022990755982 0.4165730474679743 0.3061715222207289 O
atom_frac -0.0000064162098993 0.4166613802662513 0.0559947598090928 O
atom_frac 0.0000310364383655 0.4166581618929971 0.1941028020804044 O
atom_frac 0.1666683434412681 0.4166653312348734 0.1107199619708910 O
atom_frac 0.0000273430244495 0.5833333302323898 0.1393704144099654 O
atom_frac 0.1667023438874939 0.5833333391212123 0.2227678216433864 O
atom_frac 0.1598229524090752 0.5833332003450088 0.6237559453298278 Ti
atom_frac 0.0016341776923312 0.5833333382459386 0.5399838699576532 Ti
atom_frac 0.1670316532104754 0.4165789996462656 0.3752959800740321 Ti
atom_frac 0.0000281461513690 0.4153265370499394 0.4581371200371209 Ti
atom_frac 0.1665179281618163 0.5833333541170118 0.3608610544997124 O
atom_frac -0.0005179987928359 0.5833332676330669 0.6108898912521008 O
atom_frac 0.1685554817531405 0.4175715037335911 0.6388742726642569 O
atom_frac 0.0001605852408484 0.4162424369626356 0.3891546522657648 O
atom_frac -0.0013025693073180 0.4159092415037637 0.5269790610309529 O
atom_frac 0.1663976419653390 0.4162547641743401 0.4442785499982804 O
atom_frac -0.0002544263462860 0.5833333359699691 0.4722104758578054 O
atom_frac 0.1638011524096807 0.5833333904745880 0.5555077590696924 O
atom_frac 0.1666293176055842 0.5833333317405649 0.9582991855527312 Ti
atom_frac -0.0000137112920167 0.5833333305494024 0.8748809499348617 Ti
atom_frac 0.1670247955545970 0.4176360121297953 0.7081675067653072 Ti
atom_frac -0.0000063966385978 0.4166687674626763 0.7914494802774829 Ti
atom_frac 0.1672722666853400 0.5833332886890301 0.6936700972764858 O
atom_frac -0.0000160172458752 0.5833333493543658 0.9439502879088345 O
atom_frac 0.1666490982764135 0.4166645058488181 0.9726206305481194 O
atom_frac 0.0001485351609871 0.4172115528531218 0.7224106696076487 O
atom_frac 0.0000605873373957 0.4166786308956782 0.8605393382043508 O
atom_frac 0.1667535900643512 0.4169121872714074 0.7771871307632499 O
atom_frac -0.0001034174350360 0.5833333295994316 0.8058307341238139 O
atom_frac 0.1666699860428983 0.5833333206624295 0.8892431090573346 O
atom_frac 0.1667337994813119 0.9166184543970645 0.2918550308513756 Ti
atom_frac 0.0000794337364103 0.9166584171211719 0.2084390124433769 Ti
atom_frac 0.1666732384567189 0.7499959541981228 0.0416826866551163 Ti
atom_frac -0.0000088506455566 0.7499958562483914 0.1250516082034218 Ti
atom_frac 0.1666441173097352 0.9166651209056526 0.0273476840278579 O
atom_frac 0.0000987545183716 0.9166965208000940 0.2775011503715339 O
atom_frac 0.1670022996188371 0.7500936589229655 0.3061715255159265 O
atom_frac -0.0000064059582036 0.7500052874151236 0.0559947580010476 O
atom_frac 0.0000310280413966 0.7500084906188638 0.1941028020601260 O
atom_frac 0.1666683428036848 0.7500013219046444 0.1107199768141642 O
atom_frac 0.0000283778593857 0.9166691143962830 0.1393806910048387 O
atom_frac 0.1666947431109643 0.9166751127049073 0.2227819818218898 O
atom_frac 0.1669186890022007 0.9164236257640528 0.6250375273964174 Ti
atom_frac -0.0000626179095158 0.9167012248498670 0.5417354142603181 Ti
atom_frac 0.1670315104293336 0.7500876743637839 0.3752959603318923 Ti
atom_frac 0.0000281060866609 0.7513401471207636 0.4581371325384832 Ti
atom_frac 0.1677252245818202 0.9166737638266731 0.3609510121399846 O
atom_frac 0.0001005492211430 0.9160801486156460 0.6106832186764252 O
atom_frac 0.1685555273280138 0.7490950672289448 0.6388742730398399 O
atom_frac 0.0001605684777225 0.7504242803982617 0.3891546414457342 O
atom_frac -0.0013025555020658 0.7507574295733673 0.5269790556288033 O
atom_frac 0.1663976180906114 0.7504119257848354 0.4442785459721215 O
atom_frac -0.0000501798578180 0.9171529542251908 0.4724796840176770 O
atom_frac 0.1668934917110442 0.9148569883047490 0.5559355475871520 O
atom_frac 0.1666090550850725 0.9166616930162177 0.9583028220589804 Ti
atom_frac -0.0000006504691776 0.9166003861824736 0.8748892799708619 Ti
atom_frac 0.1670247936516337 0.7490305479261649 0.7081675089323153 Ti
atom_frac -0.0000063915299474 0.7499978950526557 0.7914494788631770 Ti
atom_frac 0.1662302436633047 0.9162841729813871 0.6938103114207486 O
atom_frac -0.0000205060555941 0.9166367564681002 0.9439469783793203 O
atom_frac 0.1666491064411265 0.7500021558505725 0.9726206357040937 O
atom_frac 0.0001485373686778 0.7494550341031279 0.7224106668690785 O
atom_frac 0.0000605999830696 0.7499880265076657 0.8605393384444155 O
atom_frac 0.1667535900534085 0.7497544711530602 0.7771871276064635 O
atom_frac 0.0001546786821656 0.9166327125619281 0.8058262633051587 O
atom_frac 0.1666624132365143 0.9166845385701990 0.8892432142469349 O
atom_frac 0.4999328986327307 0.2500482648584939 0.2918550386755772 Ti
atom_frac 0.3333333274863832 0.2499988264700329 0.2084288737620039 Ti
atom_frac 0.4999989304291995 0.0833333319401314 0.0416770923722546 Ti
atom_frac 0.3333333256249880 0.0833333446896909 0.1250499339057312 Ti
atom_frac 0.5000225429077968 0.2500015397914725 0.0273476864487583 O
atom_frac 0.3333333426301361 0.2498325462584361 0.2774588021612480 O
atom_frac 0.4997626439302144 0.0833333410174960 0.3063215872417834 O
atom_frac 0.3333333304937003 0.0833333320244113 0.0559803232695252 O
atom_frac 0.3333333420307508 0.0833333302424979 0.1940832668387033 O
atom_frac 0.4999973320081020 0.0833333226430826 0.1107150299805190 O
atom_frac 0.3333333454587535 0.2500030510190303 0.1393673220291824 O
atom_frac 0.4999719475863145 0.2499915590163873 0.2227819779520707 O
atom_frac 0.4997479515273953 0.2502428105947110 0.6250375117217403 Ti
atom_frac 0.3333333016290614 0.2518988514782791 0.5418480186849305 Ti
atom_frac 0.4989466240508761 0.0833333508889351 0.3753152134416796 Ti
atom_frac 0.3333333252106484 0.0833333426766980 0.4598794711868185 Ti
atom_frac 0.4989414668073197 0.2499929431870412 0.3609510166184511 O
atom_frac 0.3333333167663152 0.2499021043531393 0.6110744948161795 O
atom_frac 0.5001481797094199 0.0833333036014331 0.6391040552348787 O
atom_frac 0.3333333333994215 0.0833333417653252 0.3902241167811443 O
atom_frac 0.3333333118872905 0.0833332742547475 0.5286236008267036 O
atom_frac 0.4991578431687591 0.0833333141280303 0.4446638135232823 O
atom_frac 0.3333333431759826 0.2520880384002600 0.4744667089757955 O
atom_frac 0.4997731614280376 0.2518096098672611 0.5559355523857702 O
atom_frac 0.5000576170839238 0.2500049557103891 0.9583028272245128 Ti
atom_frac 0.3333333204625433 0.2498717704115593 0.8749666264845489 Ti
atom_frac 0.5001210252253022 0.0833332930401341 0.7080844690893153 Ti
atom_frac 0.3333333271279954 0.0833333223937904 0.7914709585342810 Ti
atom_frac 0.5004364053348737 0.2503823796190297 0.6938103163258910 O
atom_frac 0.3333333255052426 0.2499447222191941 0.9439752484574461 O
atom_frac 0.5000592307801842 0.0833333305841755 0.9726172740391799 O
atom_frac 0.3333333278860336 0.0833332777209083 0.7223745858557741 O
atom_frac 0.3333333514867947 0.0833333253023332 0.8605761637853485 O
atom_frac 0.4999516330384574 0.0833333329471131 0.7771510986571303 O
atom_frac 0.3333333328043515 0.2499754062647978 0.8058696331406395 O
atom_frac 0.5000042512115340 0.2499821330638003 0.8892432129958610 O
atom_frac 0.4999724517221623 0.5833333396225436 0.2919139535001554 Ti
atom_frac 0.3333333659783618 0.5833333359535440 0.2084642016674294 Ti
atom_frac 0.4999934316789765 0.4166706994950274 0.0416826871267400 Ti
atom_frac 0.3333333193462456 0.4166864965917387 0.1250596663237832 Ti
atom_frac 0.5000272137722916 0.5833333283475055 0.0273511200062996 O
atom_frac 0.3333332902439625 0.5833333525678610 0.2774984722539112 O
atom_frac 0.4996643672340183 0.4165729933869085 0.3061715318279210 O
atom_frac 0.3333333216837461 0.4166724916691422 0.0559907967947270 O
atom_frac 0.3333333373909076 0.4166563963389289 0.1941014515192027 O
atom_frac 0.4999983560105758 0.4166653396261093 0.1107199787673300 O
atom_frac 0.3333333276604092 0.5833333296771337 0.1393808714007878 O
atom_frac 0.4999643656468939 0.5833333235893512 0.2227678459926163 O
atom_frac 0.5068436742957759 0.5833332018557174 0.6237559411432737 Ti
atom_frac 0.3333333134127326 0.5833343503689842 0.5450436698593630 Mn
atom_frac 0.4996350408632727 0.4165789823468199 0.3752959778049790 Ti
atom_frac 0.3333333347716744 0.4219025833971435 0.4591039253672330 Ti
atom_frac 0.5001487731010754 0.5833333566979430 0.3608610724721464 O
atom_frac 0.3333333141556631 0.5833331935700145 0.6060487961542251 O
atom_frac 0.4981111306743169 0.4175715034564599 0.6388742721760402 O
atom_frac 0.3333333314248894 0.4181803340864444 0.3900136522849008 O
atom_frac 0.3333333154516235 0.4252773407012630 0.5289568029095213 O
atom_frac 0.5002690287436190 0.4162547632509853 0.4442785606204767 O
atom_frac 0.3333333470628483 0.5833333758009358 0.4723201707145063 O
atom_frac 0.5028654773046556 0.5833333897831717 0.5555077557496292 O
atom_frac 0.5000373542753331 0.5833333279679888 0.9582991889605305 Ti
atom_frac 0.3333333433947062 0.5833333253001547 0.8749520986394720 Ti
atom_frac 0.4996418709465311 0.4176360097365890 0.7081675070246901 Ti
atom_frac 0.3333333309055708 0.4165890019598400 0.7916651523890486 Ti
atom_frac 0.4993944012798222 0.5833332892336852 0.6936700993315600 O
atom_frac 0.3333333394828772 0.5833333312868532 0.9439848315457926 O
atom_frac 0.5000175579090774 0.4166645141142101 0.9726206306444396 O
atom_frac 0.3333333274679177 0.4165892533057620 0.7225348949580371 O
atom_frac 0.3333333493375847 0.4166099141390552 0.8606272703637263 O
atom_frac 0.4999130753312851 0.4169121840902495 0.7771871295585950 O
atom_frac 0.3333333351103441 0.5833333247977838 0.8059277841310152 O
atom_frac 0.4999966777634808 0.5833333407833426 0.8892431081818833 O
atom_frac 0.4999329076297775 0.9166184557125888 0.2918550299551972 Ti
atom_frac 0.3333333309904832 0.9166678397705679 0.2084288709747332 Ti
atom_frac 0.4999934193815730 0.7499959576247991 0.0416826860508615 Ti
atom_frac 0.3333333160429529 0.7499801683370878 0.1250596636797218 Ti
atom_frac 0.5000225491658137 0.9166651229196348 0.0273476823165380 O
atom_frac 0.3333333442432563 0.9168341367580509 0.2774587952893794 O
atom_frac 0.4996644076387854 0.7500937082308157 0.3061715295577740 O
atom_frac 0.3333333044079144 0.7499941695419299 0.0559907977934218 O
atom_frac 0.3333333572960716 0.7500102766357736 0.1941014535824164 O
atom_frac 0.4999983559844827 0.7500013408390285 0.1107199633270408 O
atom_frac 0.3333333179055406 0.9166636219423203 0.1393673225740196 O
atom_frac 0.4999719464995657 0.9166751209087333 0.2227819726966715 O
atom_frac 0.4997479277577639 0.9164236217798009 0.6250375251008510 Ti
atom_frac 0.3333333012336724 0.9147698801580674 0.5418480142771711 Ti
atom_frac 0.4996351898239855 0.7500876856483303 0.3752959475909715 Ti
atom_frac 0.3333333478979012 0.7447640320806284 0.4591037527981214 Ti
atom_frac 0.4989414642240864 0.9166737499420198 0.3609510126612862 O
atom_frac 0.3333333159455235 0.9167645737308405 0.6110745096222892 O
atom_frac 0.4981110870366374 0.7490950684159852 0.6388742737946344 O
atom_frac 0.3333333365549244 0.7484862959239081 0.3900136708709732 O
atom_frac 0.3333333170217218 0.7413888229213612 0.5289568662064483 O
atom_frac 0.5002690567747070 0.7504119224609981 0.4442785527909517 O
atom_frac 0.3333333471349840 0.9145784580538074 0.4744667512264220 O
atom_frac 0.4997731353591542 0.9148569884681830 0.5559355453674042 O
atom_frac 0.5000576184551818 0.9166617065497562 0.9583028275750637 Ti
atom_frac 0.3333333264537860 0.9167948902814589 0.8749666284450154 Ti
atom_frac 0.4996418755314116 0.7490305515445147 0.7081675113608323 Ti
atom_frac 0.3333333298391806 0.7500776497255117 0.7916651541649113 Ti
atom_frac 0.5004364158073497 0.9162841740696221 0.6938103113349063 O
atom_frac 0.3333333301263339 0.9167219347065001 0.9439752473956463 O
atom_frac 0.5000175701633188 0.7500021458633922 0.9726206274012275 O
atom_frac 0.3333333288890346 0.7500773058217333 0.7225348956483277 O
atom_frac 0.3333333265060666 0.7500567391324899 0.8606272729607716 O
atom_frac 0.4999130747773638 0.7497544699927653 0.7771871290956746 O
atom_frac 0.3333333376331451 0.9166912376304786 0.8058696325924858 O
atom_frac 0.5000042498671540 0.9166845177107663 0.8892432080968713 O
atom_frac 0.8333333118723673 0.2498782788027066 0.2917365146392649 Ti
atom_frac 0.6665872621263607 0.2500082235497675 0.2084389938770840 Ti
atom_frac 0.8333333364817688 0.0833333301760598 0.0416733983055007 Ti
atom_frac 0.6666663261170425 0.0833333351309483 0.1250558385074126 Ti
atom_frac 0.8333333562655230 0.2499963375703402 0.0273360606572037 O
atom_frac 0.6665679200692421 0.2499701629548508 0.2775011429020405 O
atom_frac 0.8333333703209609 0.0833333425041523 0.3060500369511435 O
atom_frac 0.6666741791932234 0.0833333412977734 0.0559940443373851 O
atom_frac 0.6665942402844740 0.0833333276792915 0.1941024837822790 O
atom_frac 0.8333333591405319 0.0833333296812099 0.1107231695438203 O
atom_frac 0.6666383026266728 0.2499976086143453 0.1393806983757502 O
atom_frac 0.8333333341903338 0.2499378737085088 0.2227308583718332 O
atom_frac 0.8333332996233728 0.2501202649008606 0.6250076837146629 Ti
atom_frac 0.6667292068971862 0.2499654782168552 0.5417354175157086 Ti
atom_frac 0.8333333509291608 0.0833333596272987 0.3751945668823377 Ti
atom_frac 0.6664180565025036 0.0833333568724613 0.4582893701722976 Ti
atom_frac 0.8333333351632584 0.2498128776726043 0.3607739775605944 O
atom_frac 0.6665660818801006 0.2505864374332230 0.6106832177968574 O
atom_frac 0.8333333100330903 0.0833333068934329 0.6391806784796712 O
atom_frac 0.6660861251572893 0.0833333405852734 0.3895060364049535 O
atom_frac 0.6655847076602376 0.0833333276205248 0.5274928493665185 O
atom_frac 0.8333333519751807 0.0833333293955196 0.4440730785569524 O
atom_frac 0.6667168450624769 0.2495137120697848 0.4724796875838599 O
atom_frac 0.8333333094529626 0.2490621683376144 0.5559429283119689 O
atom_frac 0.8333333395889800 0.2500031674021628 0.9582890298879614 Ti
atom_frac 0.6666673353159719 0.2500662712452704 0.8748892759119142 Ti
atom_frac 0.8333333333231738 0.0833333021690920 0.7081614606938256 Ti
atom_frac 0.6666582411302819 0.0833333351358148 0.7915334866300312 Ti
atom_frac 0.8333333348514612 0.2501532594257267 0.6938848189155604 O
atom_frac 0.6666871856761847 0.2500298892125200 0.9439469889761616 O
atom_frac 0.8333333469138250 0.0833333314462027 0.9726073753570504 O
atom_frac 0.6666898655502939 0.0833332967728770 0.7224705385573451 O
atom_frac 0.6666776365502484 0.0833333307845891 0.8605636501588134 O
atom_frac 0.8333333270986099 0.0833333385709347 0.7772348658394924 O
atom_frac 0.6665119766591885 0.2500339388239500 0.8058262642476320 O
atom_frac 0.8333333407163717 0.2500630836478129 0.8892128643390689 O
atom_frac 0.8333333977125512 0.5833333357362471 0.2916746212384818 Ti
atom_frac 0.6664926976054334 0.5833333468487932 0.2084415612639728 Ti
atom_frac 0.8333333204309544 0.4166666580158603 0.0416725998270806 Ti
atom_frac 0.6666755426519018 0.4166708941728380 0.1250516047344362 Ti
atom_frac 0.8333333186072079 0.5833333314402148 0.0273467574381199 O
atom_frac 0.6665754987041731 0.5833333336894090 0.2774782344629034 O
atom_frac 0.8333333535760331 0.4166242637897596 0.3059483066803564 O
atom_frac 0.6666731028905182 0.4166613508034122 0.0559947684370540 O
atom_frac 0.6666356475549370 0.4166581575642702 0.1941028168360436 O
atom_frac 0.8333333097075730 0.4166477377387995 0.1107231563532242 O
atom_frac 0.6666393414194439 0.5833333313900153 0.1393704064794195 O
atom_frac 0.8333333112657577 0.5833333319539002 0.2227226909048592 O
atom_frac 0.8333333048400862 0.5833332945311769 0.6240991700107652 Ti
atom_frac 0.6650324476589133 0.5833333354632017 0.5399838663569669 Ti
atom_frac 0.8333333456683009 0.4166927349919893 0.3749714480320847 Ti
atom_frac 0.6666385672605828 0.4153265411192873 0.4581371240790664 Ti
atom_frac 0.8333333447374492 0.5833333482510545 0.3607691256871773 O
atom_frac 0.6671846197913339 0.5833332656605900 0.6108898906847254 O
atom_frac 0.8333333109179651 0.4169565282833695 0.6390585175764206 O
atom_frac 0.6665061200322777 0.4162424358975554 0.3891546448826636 O
atom_frac 0.6679691906154480 0.4159092385616233 0.5269790619009642 O
atom_frac 0.8333333631057191 0.4161045876865004 0.4438376247032650 O
atom_frac 0.6669211191775010 0.5833333366539004 0.4722104736573507 O
atom_frac 0.8333333119759490 0.5833333521957449 0.5560966791792621 O
atom_frac 0.8333333330907690 0.5833333310060462 0.9582938712962801 Ti
atom_frac 0.6666803747954989 0.5833333252064048 0.8748809417093888 Ti
atom_frac 0.8333333355083132 0.4173997618793127 0.7081254206391151 Ti
atom_frac 0.6666730614026277 0.4166687503970055 0.7914494775275183 Ti
atom_frac 0.8333333345147593 0.5833333031152039 0.6939031430651957 O
atom_frac 0.6666826839579361 0.5833333083750598 0.9439502922642206 O
atom_frac 0.8333333502074776 0.4166686049533329 0.9726202259367719 O
atom_frac 0.6665181302257938 0.4172115502378353 0.7224106684981260 O
atom_frac 0.6666060699168858 0.4166786295218320 0.8605393351704679 O
atom_frac 0.8333333282945596 0.4165180971650752 0.7771684313244532 O
atom_frac 0.6667700789089239 0.5833333255652394 0.8058307317693459 O
atom_frac 0.8333333423209857 0.5833333323337554 0.8892254600712507 O
atom_frac 0.8333333076378819 0.9167884189890732 0.2917365211191025 Ti
atom_frac 0.6665872517825241 0.9166584243102197 0.2084389915780787 Ti
atom_frac 0.8333333492346598 0.7500000009740606 0.0416726015592011 Ti
atom_frac 0.6666755442447284 0.7499957681952891 0.1250515756848961 Ti
atom_frac 0.8333333414288071 0.9166703214926740 0.0273360609266778 O
atom_frac 0.6665679203012291 0.9166965488284902 0.2775011373754076 O
atom_frac 0.8333333128086531 0.7500424288379033 0.3059483056884407 O
atom_frac 0.6666731106446927 0.7500052973069140 0.0559947710974282 O
atom_frac 0.6666356362287210 0.7500085124353544 0.1941028212504166 O
atom_frac 0.8333333111078235 0.7500189304616561 0.1107231566734462 O
atom_frac 0.6666383127876145 0.9166690570523870 0.1393806808216070 O
atom_frac 0.8333333288675172 0.9167287858898036 0.2227308538899098 O
atom_frac 0.8333333014180623 0.9165463395531754 0.6250076858063423 Ti
atom_frac 0.6667292324573818 0.9167012475533037 0.5417354119600339 Ti
atom_frac 0.8333333405690190 0.7499739383357980 0.3749714336606271 Ti
atom_frac 0.6666385923218100 0.7513401445138974 0.4581371391748974 Ti
atom_frac 0.8333333546399260 0.9168538126555215 0.3607739834029204 O
atom_frac 0.6665660790786211 0.9160801469375274 0.6106832180084785 O
atom_frac 0.8333333089041001 0.7497100516130456 0.6390585149142892 O
atom_frac 0.6665061316707891 0.7504243041370473 0.3891546352048353 O
atom_frac 0.6679691752943314 0.7507574311938859 0.5269790577299578 O
atom_frac 0.8333333589360998 0.7505620442224009 0.4438376180416756 O
atom_frac 0.6667168712434455 0.9171529623142730 0.4724796846573470 O
atom_frac 0.8333333099808724 0.9176045064349460 0.5559429319057073 O
atom_frac 0.8333333323237766 0.9166634922374107 0.9582890289129896 Ti
atom_frac 0.6666673322387821 0.9166003942927672 0.8748892710065835 Ti
atom_frac 0.8333333326508182 0.7492668505226261 0.7081254195833941 Ti
atom_frac 0.6666730573576491 0.7499978988966752 0.7914494789486983 Ti
atom_frac 0.8333333342478185 0.9165133301946342 0.6938848191914743 O
atom_frac 0.6666871825233311 0.9166367924223950 0.9439469859610614 O
atom_frac 0.8333333303806013 0.7499980542087260 0.9726202266153310 O
atom_frac 0.6665181265044950 0.7494550352565332 0.7224106669112949 O
atom_frac 0.6666060801686265 0.7499880228435908 0.8605393365626733 O
atom_frac 0.8333333288452039 0.7501485674632211 0.7771684309010238 O
atom_frac 0.6665119793501310 0.9166327192034207 0.8058262607829310 O
atom_frac 0.8333333432853914 0.9166035760153366 0.8892128636122119 O
