#=======================================================
# FHI-aims file: C:\Users\amit_\OneDrive\PhD Python\DFTdevelopment\FinalBayesianTesting\Defectvalidation\self-consistent projectors\HybridSP\SCF v3 for Archer2\Rutile\W\geometry.in
# Created using the Atomic Simulation Environment (ASE)
# Mon Jul 29 11:24:44 2024
#=======================================================
lattice_vector 13.7870999999999988 0.0000000000000000 0.0000000000000000 
lattice_vector 0.0000000000000000 13.7870999999999988 0.0000000000000000 
lattice_vector 0.0000000000000000 0.0000000000000000 8.8766999999999996 
atom 2.3614130830107745 2.3345564583098244 1.4818485860662276 Ti
atom 0.0287780702674651 -0.0302476221596908 0.0321081583076368 Ti
atom 0.8853831972609842 3.7094457013537760 1.4838596490561644 O
atom 3.7089958953390725 0.8876109616173213 1.4786553630172214 O
atom 1.3941255402372794 1.3867051663204073 0.0021052254047386 O
atom 3.1661359897225063 3.1752246079301094 -0.0005150537836431 O
atom 2.2091225098214826 2.3323074236906725 4.4050164921534991 Ti
atom 0.0377657953641381 -0.0321804819686844 2.9463554740036551 Ti
atom 0.8744102067937239 3.7008268451085162 4.4414719702539545 O
atom 3.7008950762451338 0.8820333712215902 4.4407718407987495 O
atom 1.3896613928535806 1.3906806654110770 2.9587962532923009 O
atom 3.1687854262399591 3.1662903145698338 2.9639449593929990 O
atom 2.2950445975664708 2.2101587006378245 7.4179633804492555 Ti
atom -0.0132693475217062 0.0105968201977427 5.9092191320011862 Ti
atom 0.8773882165344234 3.6959843839057096 7.3961157320119506 O
atom 3.6948783558468543 0.8789727734814806 7.3972507140159323 O
atom 1.3801134295774173 1.3821364114081101 5.9207625219581077 O
atom 3.1478332027976674 3.1501694665633031 5.9175318165944200 O
atom 2.3425855871145251 6.9099721488270447 1.4553404039118514 Ti
atom 0.1028397520299004 4.5733009991813427 0.0118959944874244 Ti
atom 0.9044113569174242 8.3071022049996603 1.4766952715942099 O
atom 3.6840754734780297 5.4818828206998003 1.4874207500278604 O
atom 1.4003989327088795 6.0069463938133563 0.0031622145046126 O
atom 3.1979930300101000 7.7730173803253058 -0.0003203957055769 O
atom 2.2775519348683457 6.7666121826236427 4.4538375000509722 Ti
atom -0.0751552844427245 4.6749439841609526 2.9496964014407330 Ti
atom 0.8924566737870594 8.2966228711420040 4.4431146026832167 O
atom 3.6537615708201652 5.4449459273331229 4.4269488506699473 O
atom 1.3823356402446394 6.0120745043089485 2.9548535676860381 O
atom 3.2052459802230171 7.7759495799253919 2.9627925979228555 O
atom 2.2657938588910951 6.9660222948527410 7.3930813811798144 Ti
atom -0.0554786404149420 4.5476592839310532 5.9157735395983666 Ti
atom 0.8959614151935045 8.3021351306145839 7.3967918737219653 O
atom 3.6776778827130974 5.4624858216892784 7.4020771127749665 O
atom 1.3988317725621753 5.9998961704201532 5.9254987195653888 O
atom 3.1895747239484264 7.7815292421948490 5.9117068380839335 O
atom 2.3258599481809954 11.3826743604498546 1.4913217246755890 Ti
atom -0.1069692507574929 9.2209003700338350 0.0130254282412755 Ti
atom 0.8930899535399381 12.8892190149937065 1.4799285868614085 O
atom 3.7120599761800537 10.0639469360920959 1.4844954373778603 O
atom 1.4069459482680315 10.5982795664787339 0.0001383931648910 O
atom 3.1972529090019224 12.3625202557638172 0.0000248668831464 O
atom 2.3492959524940100 11.5570533365312151 4.4214537366593785 Ti
atom 0.0641827127794325 9.1239213194710391 2.9504430518585818 Ti
atom 0.9000150863825811 12.8919166004345058 4.4404546512035941 O
atom 3.7225395272977115 10.0761702543825731 4.4272741062569825 O
atom 1.4227139423302957 10.5879602652140630 2.9633668972415985 O
atom 3.1887821500005966 12.3754457269957410 2.9550136021998612 O
atom 2.2392090904576198 11.4993804290293617 7.4012037373114268 Ti
atom 0.0446191126134665 9.2228569521330144 5.9177152893345069 Ti
atom 0.8978916729084402 12.8896099120683374 7.3998961777327450 O
atom 3.7027112368680632 10.0736746314917038 7.4024395496288644 O
atom 1.4177458730945149 10.5918189884543832 5.9198175201858874 O
atom 3.1945139467680419 12.3751712831805065 5.9210364885704161 O
atom 6.7982162139338298 2.3269815663811779 1.4810625686484886 Ti
atom 4.5981460072595333 -0.1177119382883857 0.0139541421643770 Ti
atom 5.4705576697842062 3.6870134420702785 1.4893754564934336 O
atom 8.3045687935118462 0.9093017123155613 1.4841307698898651 O
atom 6.0073916437623014 1.4003590037271476 0.0042845304144097 O
atom 7.7732927482208476 3.2083684737701188 0.0011259909861972 O
atom 7.0066194818602803 2.3418280858211671 4.4421784312059973 Ti
atom 4.6125245327075328 0.0659285320494370 2.9499791526738219 Ti
atom 5.4709735393372201 3.6804660228489645 4.4370313937443440 O
atom 8.3047994150918036 0.9040866680354172 4.4412841263064866 O
atom 6.0081790861560131 1.4032172920702919 2.9584682803970463 O
atom 7.7846570664250816 3.2115030220307537 2.9614665418692061 O
atom 6.8476237725839155 2.2411243035570938 7.3884750748762205 Ti
atom 4.5788073592191223 0.0445506873194017 5.8978202762396554 Ti
atom 5.4584153011841927 3.6753922723539523 7.4088798731536931 O
atom 8.2929755559948468 0.9047148537142911 7.4005766435948770 O
atom 6.0005762693162454 1.4072276164466599 5.9194569621689208 O
atom 7.7886511641984404 3.2001510207622803 5.9199329694778120 O
atom 6.8926389467889466 6.8941988801061127 1.3678009722683038 Ti
atom 4.5689828907250183 4.6847378035093454 -0.0180410929874141 Ti
atom 5.4969563406256068 8.2914813273630266 1.4757302669117078 O
atom 8.2952171853636880 5.4909382481583267 1.4838152570508463 O
atom 5.9830720974686651 5.9782304816848395 0.0176332088832868 O
atom 7.8101899317374297 7.8034954241902206 0.0174150162793155 O
atom 6.9300494209209909 6.8586243527090192 4.5555811629486396 W
atom 4.6723197008815678 4.6328584634472119 2.9952149778646588 Ti
atom 5.5197189615800468 8.2623291729381663 4.4422215449557445 O
atom 8.2417170538850435 5.5499108202816014 4.4543102894310236 O
atom 5.9860238987370655 5.9979712132096639 2.9633297565430725 O
atom 7.7862935645838576 7.8047187278677121 2.9636293794259032 O
atom 6.8974116528333971 6.8889045797831452 7.1982598809209541 Ti
atom 4.5269757778168795 4.4583834113484242 5.9517983950315063 Ti
atom 5.4855507031405857 8.3083494995812774 7.3744878810953294 O
atom 8.3010632884795168 5.4818465837432466 7.3678491371211434 O
atom 5.8623581157119045 5.9255023114001162 5.8823792601185412 O
atom 7.8648955261512752 7.9218462540856898 5.8832714119368497 O
atom 6.9618267129656983 11.4665841589087041 1.4880767783010034 Ti
atom 4.7101327527830064 9.2140917547810286 -0.0199125486882569 Ti
atom 5.4806435345392934 12.8857083191319237 1.4842807739715704 O
atom 8.3120890529549509 10.1071264827351168 1.4854919474829653 O
atom 6.0087825607587080 10.5882970617511312 0.0021532438593704 O
atom 7.7769684123846323 12.3988720954212326 0.0054633010538869 O
atom 6.7806232990865150 11.4539798211255270 4.4413338099370527 Ti
atom 4.5622375213132988 9.1219408372252975 2.9649778479778468 Ti
atom 5.4809093697374429 12.8914470112562540 4.4413221110148466 O
atom 8.3187829975444743 10.1275145704611091 4.4329571402095862 O
atom 6.0082884833109196 10.5840549861633342 2.9582700040667902 O
atom 7.7747290842731465 12.3959725943016164 2.9560238074479197 O
atom 6.9507361892911961 11.5490584189427388 7.3873229669497187 Ti
atom 4.5098801586156787 9.2182322330331168 5.9505586710283369 Ti
atom 5.4933083285753090 12.8922181763893082 7.3993228568812315 O
atom 8.3288600047937340 10.1251523773715384 7.4157116595819916 O
atom 6.0006101832787664 10.5965787515377734 5.9216791216448534 O
atom 7.7851414471851079 12.3900486218558932 5.9205514018757341 O
atom 11.5676348529666129 2.2968851704072515 1.4901098008897449 Ti
atom 9.1717955215371756 0.1110455110091678 0.0181654147249201 Ti
atom 10.0820900099523154 3.7200062243279945 1.4737320618842187 O
atom 12.9001267668607777 0.8943610306140931 1.4806281808742823 O
atom 10.5954721751636765 1.4197418594162177 0.0007940375428869 O
atom 12.3855058023305009 3.1820228165195097 0.0005084351776395 O
atom 11.4647893969332131 2.2057257172414304 4.4206126894386415 Ti
atom 9.1596658512052667 -0.0526143804392410 2.9509257316301891 Ti
atom 10.0640262304968608 3.7113520029010041 4.4312345183723298 O
atom 12.8887242764732690 0.8929737412605000 4.4398300952336713 O
atom 10.6003804486097835 1.4115955526852477 2.9544208898520461 O
atom 12.3660550052022984 3.1950346322084284 2.9632163049734062 O
atom 11.5556147630201878 2.2622911785707713 7.4150688695683904 Ti
atom 9.2203306649345809 -0.0437538277187878 5.8971792134275125 Ti
atom 10.0877463152952593 3.7133521342757523 7.4087548225675919 O
atom 12.8918774891160464 0.8961164094998130 7.3982175929040794 O
atom 10.5924447277321345 1.4116581114617575 5.9218904906413483 O
atom 12.3672284839138591 3.1951652298201760 5.9198740441052378 O
atom 11.4261849421723483 6.8845745825179963 1.4648532649676294 Ti
atom 9.0627716915662866 4.5912481599848727 -0.0101759396266938 Ti
atom 10.0962037078662838 8.3105261935839785 1.4901697761602266 O
atom 12.8755232880436292 5.4823869996314283 1.4752238883022664 O
atom 10.5812990263314077 6.0218976699221356 -0.0020883919781389 O
atom 12.3793312885978750 7.7855502568982260 0.0020109750907676 O
atom 11.4892586125221978 7.0157666887280294 4.4483570658289766 Ti
atom 9.2914269183744569 4.5624353099602883 2.8984729771963664 Ti
atom 10.1135341679646835 8.3404400225594664 4.4353543816627043 O
atom 12.8882888553052481 5.4922778185373993 4.4440474050653194 O
atom 10.5791153486985063 6.0099058283434088 2.9665578333348779 O
atom 12.3932716768691904 7.7804474877594068 2.9578702603163101 O
atom 11.5292501126092599 6.8260769235186229 7.4009708988769933 Ti
atom 9.3127928511560238 4.5459744547450001 5.9725925317753417 Ti
atom 10.0976968370434275 8.3283616881152476 7.3960649866511803 O
atom 12.8842154505882238 5.4869315183225140 7.3976716955754522 O
atom 10.5908782298135442 6.0049528092446369 5.9119530631106407 O
atom 12.3816200388374025 7.7916036780552265 5.9231921063051667 O
atom 11.4165395481054794 11.4657212732270182 1.4855761900298867 Ti
atom 9.2102697014145640 9.1087978542573129 -0.0121210462179631 Ti
atom 10.0752917874851473 12.9043790794518447 1.4790759709480765 O
atom 12.8988373258412601 10.0810787918746225 1.4846062282444372 O
atom 10.6208474007813933 10.6149460217838598 -0.0002143686461974 O
atom 12.3942225375801325 12.4015191374185552 0.0020589353881868 O
atom 11.5780901139765735 11.4597732694168020 4.4042901111834123 Ti
atom 9.0949066827841012 9.1756209225231817 2.9974226530550361 Ti
atom 10.0840645509657580 12.9109851901382058 4.4397115741833728 O
atom 12.9088384158956977 10.0899557575519356 4.4419254527480305 O
atom 10.6163761188837338 10.6240611740258917 2.9645693964536317 O
atom 12.3987468815536293 12.3960012638587145 2.9580835669987700 O
atom 11.4899446486551930 11.5742484136708192 7.4210534820254832 Ti
atom 9.2634246313733648 9.3292321961312776 5.9563737193975816 Ti
atom 10.0895411235406360 12.9117382682236954 7.3977578166628488 O
atom 12.9055391766513345 10.0949271363378017 7.3954723848681310 O
atom 10.6324352403675810 10.6464088806711104 5.9174048182818124 O
atom 12.4073194296560558 12.4068385883212056 5.9215076726917326 O
