#=======================================================
# FHI-aims file: ./geometry.in
# Created using the Atomic Simulation Environment (ASE)
# Sun Jun  2 06:30:10 2024
#=======================================================
lattice_vector 13.7870999999999988 0.0000000000000000 0.0000000000000000 
lattice_vector 0.0000000000000000 13.7870999999999988 0.0000000000000000 
lattice_vector 0.0000000000000000 0.0000000000000000 8.8766999999999996 
atom_frac 0.1625574256007053 0.1625706943446583 0.1671372457373565 Ti
atom_frac -0.0000008455928820 -0.0000008199545231 -0.0000002118807717 Ti
atom_frac 0.0642204874680688 0.2682307222602119 0.1669607184386440 O
atom_frac 0.2682290507341307 0.0642189061157059 0.1669597118442669 O
atom_frac 0.1020470139447719 0.1020496344722059 -0.0001213067420553 O
atom_frac 0.2317175002988670 0.2317152398042839 0.0017359679906766 O
atom_frac 0.1664295436702585 0.1664418376556958 0.5010263220779083 Ti
atom_frac -0.0032300801224359 -0.0032286979088445 0.3371763877952913 Ti
atom_frac 0.0647279201694158 0.2685095743905735 0.5001819074649421 O
atom_frac 0.2685066761034374 0.0647258577795917 0.5001827885198534 O
atom_frac 0.1020660732549049 0.1020685954604239 0.3338922793425697 O
atom_frac 0.2315274660393035 0.2315246501528106 0.3337502576464743 O
atom_frac 0.1709340613350034 0.1709139210892165 0.8343976082079263 Ti
atom_frac 0.0032273002162513 0.0032259804124601 0.6628242262924534 Ti
atom_frac 0.0651641968895064 0.2689145976832817 0.8334563970580529 O
atom_frac 0.2689129023215321 0.0651621855767595 0.8334553314705183 O
atom_frac 0.1021926430910913 0.1021943090373609 0.6673592958738994 O
atom_frac 0.2311564871798466 0.2311538624465574 0.6667720870198173 O
atom_frac 0.1683134423956077 0.5050490408396733 0.1663358494952768 Ti
atom_frac -0.0013648878579277 0.3326921406156504 0.0014489993003508 Ti
atom_frac 0.0649947034713508 0.6023006104408754 0.1667148274840770 O
atom_frac 0.2710290592629345 0.3996221720392109 0.1689455148330701 O
atom_frac 0.1023990213763557 0.4350575758173154 0.0013537446724878 O
atom_frac 0.2314482377636206 0.5646981030278507 -0.0003401822339923 O
atom_frac 0.1666072236932640 0.5015152260580485 0.5006573248614344 Ti
atom_frac 0.0026021272292660 0.3378355768618071 0.3322374845741642 Ti
atom_frac 0.0646812253407667 0.6020083467605143 0.4999330993505767 O
atom_frac 0.2681810297310359 0.3976847437860790 0.5008272137202558 O
atom_frac 0.1024005310193758 0.4353555781839032 0.3332908599059202 O
atom_frac 0.2313017081272922 0.5649861677279168 0.3342729900082633 O
atom_frac 0.1652733768913464 0.4938353310855443 0.8341030717414248 Ti
atom_frac -0.0010390035074807 0.3294753214028350 0.6662065425306657 Ti
atom_frac 0.0641269091328089 0.6016033363800497 0.8333948334761002 O
atom_frac 0.2680506279278612 0.3975647139914800 0.8346561663294714 O
atom_frac 0.1016274947681245 0.4352400586724955 0.6665887729545484 O
atom_frac 0.2316563437475825 0.5638760163734630 0.6671009408875591 O
atom_frac 0.1684580596708039 0.8382787524798401 0.1679864605012616 Ti
atom_frac 0.0013636719226136 0.6673085075402867 -0.0014489045189630 Ti
atom_frac 0.0651246284332025 0.9354481227856292 0.1661651549497999 O
atom_frac 0.2695138007788013 0.7311804554471439 0.1664537411849470 O
atom_frac 0.1020494025900579 0.7683671720193970 0.0001693618714229 O
atom_frac 0.2316358475892664 0.8979480193195289 -0.0001700401976738 O
atom_frac 0.1713201254109096 0.8286670983963347 0.4999951508297260 Ti
atom_frac 0.0010396799675835 0.6705244718617696 0.3337949253231374 Ti
atom_frac 0.0644314987671864 0.9355683110160322 0.5000005092924028 O
atom_frac 0.2695934135019837 0.7304026944603960 0.5000000811051037 O
atom_frac 0.1022385885704283 0.7687543100876655 0.3331911801122954 O
atom_frac 0.2317809955900815 0.8975084193173429 0.3336407082331698 O
atom_frac 0.1617268562084088 0.8315448392185514 0.8320163975749099 Ti
atom_frac -0.0026011268291998 0.6621636967016851 0.6677628047109847 Ti
atom_frac 0.0645546161683566 0.9348774985781473 0.8338348225504653 O
atom_frac 0.2688162292396045 0.7304837074956260 0.8335470802540532 O
atom_frac 0.1024895897746350 0.7682188346778615 0.6663622755321116 O
atom_frac 0.2312471673313851 0.8977585285990513 0.6668081096282766 O
atom_frac 0.5050464476976809 0.1683350172655805 0.1663343742694670 Ti
atom_frac 0.3327142970854665 -0.0013729950777265 0.0014564688992201 Ti
atom_frac 0.3996258622130375 0.2710312955390992 0.1689445697074656 O
atom_frac 0.6022986196857774 0.0649938862554946 0.1667158213152764 O
atom_frac 0.4350574942945988 0.1023999940411517 0.0013533499237872 O
atom_frac 0.5647010948473593 0.2314467112713114 -0.0003406459602304 O
atom_frac 0.5015231491512775 0.1665760024598679 0.5006640889973992 Ti
atom_frac 0.3378112604396052 0.0026272279105345 0.3322329922978857 Ti
atom_frac 0.3976875044283511 0.2681820920899700 0.5008268403351989 O
atom_frac 0.6020067353154231 0.0646780342900146 0.4999332592063035 O
atom_frac 0.4353521117912477 0.1024038959129411 0.3332916650927192 O
atom_frac 0.5649903505037344 0.2312994388403538 0.3342737324775248 O
atom_frac 0.4938378573816248 0.1652735798748373 0.8341043222400008 Ti
atom_frac 0.3294690232071534 -0.0010550464761170 0.6662070080210509 Ti
atom_frac 0.3975676018544340 0.2680511326726176 0.8346551915773714 O
atom_frac 0.6016033118005333 0.0641243592451287 0.8333923439978203 O
atom_frac 0.4352397183915158 0.1016288206995696 0.6665884816797023 O
atom_frac 0.5638786538877210 0.2316537913593445 0.6670998452420581 O
atom_frac 0.5038890902442335 0.5038856829608649 0.1677902585951604 Ti
atom_frac 0.3337036902283186 0.3337193050005221 0.0051623939094744 Ti
atom_frac 0.3978661619693127 0.6000828507833347 0.1678419726709858 O
atom_frac 0.6000808440643384 0.3978645339588386 0.1678425993533560 O
atom_frac 0.4355714465750684 0.4355741678650091 -0.0016196967672933 O
atom_frac 0.5644307958488569 0.5644281336763832 0.0016151419885804 O
atom_frac 0.4999948165642835 0.4999949755100387 0.4999869496483288 Mn
atom_frac 0.3296302664255246 0.3296243391133646 0.3359095373711131 Ti
atom_frac 0.3992755425590253 0.6007282547078661 0.5000009590020009 O
atom_frac 0.6007267616356391 0.3992740892235020 0.4999998878492178 O
atom_frac 0.4389668298760828 0.4389681153180148 0.3505866927213337 O
atom_frac 0.5661219440973233 0.5661217563051516 0.3321202452640923 O
atom_frac 0.4961217229660941 0.4961251426432605 0.8321645864290919 Ti
atom_frac 0.3364020761877448 0.3363849747094669 0.6659001424448827 Ti
atom_frac 0.3999180563630383 0.6021358748439507 0.8321583155323872 O
atom_frac 0.6021341728103428 0.3999160552644388 0.8321589252832449 O
atom_frac 0.4338772090255593 0.4338775741685626 0.6678752093131166 O
atom_frac 0.5610353603515631 0.5610340755812913 0.6494323431007243 O
atom_frac 0.5061617928956171 0.8347265147556420 0.1658960564824511 Ti
atom_frac 0.3295054065357714 0.6704827052005884 0.0000020465128008 Ti
atom_frac 0.3983967133083098 0.9358758649151785 0.1666083128894387 O
atom_frac 0.6024324293144319 0.7319491729034586 0.1653446489529065 O
atom_frac 0.4352988447567966 0.7685533652178940 0.0003413193008551 O
atom_frac 0.5649424781716562 0.8976005135036599 -0.0013523185371854 O
atom_frac 0.4984768440152536 0.8334254100137998 0.4993363299043177 Ti
atom_frac 0.3392197464782961 0.6658451306773624 0.3326686125739302 Ti
atom_frac 0.3979933216574674 0.9353220579667252 0.5000671941522862 O
atom_frac 0.6023118620341631 0.7318171742563661 0.4991738134029182 O
atom_frac 0.4361214022042247 0.7683466517785051 0.3329002423005044 O
atom_frac 0.5647603730590096 0.8983712563698405 0.3334122066185253 O
atom_frac 0.4949541085023111 0.8316641305886929 0.8336662256325406 Ti
atom_frac 0.3341596386630509 0.6607888110671424 0.6673292332119288 Ti
atom_frac 0.3977013759274640 0.9350064135841750 0.8332850139146173 O
atom_frac 0.6003751341896282 0.7289704897879674 0.8310578440568552 O
atom_frac 0.4350095878930982 0.7687011856672429 0.6657275643206575 O
atom_frac 0.5646476785823353 0.8975964652140555 0.6667087186869995 O
atom_frac 0.8382731708801862 0.1684548858421147 0.1679840927850593 Ti
atom_frac 0.6672856790350669 0.0013725328799596 -0.0014562698008493 Ti
atom_frac 0.7311835870442758 0.2695165803150760 0.1664534944426632 O
atom_frac 0.9354452216518399 0.0651224167583274 0.1661653755163610 O
atom_frac 0.7683641321838552 0.1020521454184276 0.0001706056227473 O
atom_frac 0.8979507256700436 0.2316328521870642 -0.0001687874064168 O
atom_frac 0.8286801374942248 0.1713332487959928 0.5000053337122072 Ti
atom_frac 0.6705312677392539 0.0010552150952322 0.3337945774874580 Ti
atom_frac 0.7304065785428883 0.2695973206833144 0.5000001145770270 O
atom_frac 0.9355679653016357 0.0644311583614766 0.5000002667781601 O
atom_frac 0.7687528567020872 0.1022414478150317 0.3331923057752564 O
atom_frac 0.8975103741492861 0.2317810653101152 0.3336384073397441 O
atom_frac 0.8315415794920660 0.1617213329592938 0.8320139760893692 Ti
atom_frac 0.6621883788915527 -0.0026266676008009 0.6677671757129761 Ti
atom_frac 0.7304864822100887 0.2688193783347006 0.8335468451841639 O
atom_frac 0.9348752712993941 0.0645517294760279 0.8338350366287920 O
atom_frac 0.7682189122296662 0.1024915443959504 0.6663599759966862 O
atom_frac 0.8977613941682657 0.2312456971262346 0.6668092382453428 O
atom_frac 0.8347264863712939 0.5061644708908287 0.1658973117021261 Ti
atom_frac 0.6704940725277444 0.3295167158546113 -0.0000024557523892 Ti
atom_frac 0.7319495926200511 0.6024352970406486 0.1653437494148177 O
atom_frac 0.9358732893711933 0.3983966666006314 0.1666058658680886 O
atom_frac 0.7685518217122628 0.4353018471072217 0.0003408512099061 O
atom_frac 0.8976014278811045 0.5649424515228054 -0.0013526681834708 O
atom_frac 0.8333948418522030 0.4984841783067901 0.4993430520460283 Ti
atom_frac 0.6658407043554718 0.3392120840691736 0.3326704290225445 Ti
atom_frac 0.7318182053037094 0.6023146095904793 0.4991733823834284 O
atom_frac 0.9353188869663682 0.3979916795531530 0.5000673288816281 O
atom_frac 0.7683440906782856 0.4361240290735702 0.3328991629675437 O
atom_frac 0.8983725943188779 0.5647600113443196 0.3334119014360461 O
atom_frac 0.8316855134195206 0.4949517033276841 0.8336646826886744 Ti
atom_frac 0.6607810273715592 0.3341553449690408 0.6673309496241316 Ti
atom_frac 0.7289727131562236 0.6003788271313246 0.8310569680333955 O
atom_frac 0.9350055954581096 0.3976994115565133 0.8332860561123706 O
atom_frac 0.7686989089932748 0.4350137773145688 0.6657283186838988 O
atom_frac 0.8975998324034807 0.5646441977186407 0.6667095084842561 O
atom_frac 0.8290734981360700 0.8290938233191103 0.1656122575482604 Ti
atom_frac 0.6663138139293198 0.6662987499729746 -0.0051607739688779 Ti
atom_frac 0.7310875308795421 0.9348379478706818 0.1665449366305171 O
atom_frac 0.9348359364005534 0.7310858342670803 0.1665438876907913 O
atom_frac 0.7682825642473997 0.7682848349003758 -0.0017336841338360 O
atom_frac 0.8979533385948395 0.8979507306408601 0.0001208504111171 O
atom_frac 0.8335587532935109 0.8335455888928628 0.4989812778921573 Ti
atom_frac 0.6635923674409995 0.6636092014840335 0.3340999508043636 Ti
atom_frac 0.7314926940523001 0.9352739508092656 0.4998176662540687 O
atom_frac 0.9352719074269075 0.7314897919373677 0.4998185131831410 O
atom_frac 0.7688436314303697 0.7688462485641612 0.3332268641817216 O
atom_frac 0.8978067193773714 0.8978050526313089 0.3326400296460570 O
atom_frac 0.8374417440038472 0.8374288818425185 0.8328542794815006 Ti
atom_frac 0.6703528514105807 0.6703583785595316 0.6640890812737930 Ti
atom_frac 0.7317707282721496 0.9357809601236908 0.8330414196738605 O
atom_frac 0.9357794007255579 0.7317690540485075 0.8330403967484862 O
atom_frac 0.7684713339101807 0.7684740877884388 0.6662506264373339 O
atom_frac 0.8979332092632565 0.8979306910600612 0.6661081365416982 O
