#=======================================================
# FHI-aims file: ./geometry.in
# Created using the Atomic Simulation Environment (ASE)
# Wed Jul 17 04:10:13 2024
#=======================================================
lattice_vector 11.3550000000000004 0.0000000000000000 0.0000000000000000 
lattice_vector 0.0000000000000000 11.3550000000000004 0.0000000000000000 
lattice_vector 0.0000000000000000 0.0000000000000000 28.5398999999999958 
atom_frac 0.1667018773386444 0.2500002794599297 0.2916704029948571 Ti
atom_frac 0.0000605455420136 0.2499919474236202 0.2083284434718136 Ti
atom_frac 0.1666626376103835 0.0833333284577468 0.0416691063091644 Ti
atom_frac -0.0000056352520541 0.0833333301125948 0.1250008411549896 Ti
atom_frac 0.1666560877317041 0.2499953597606721 0.0273716094480592 O
atom_frac 0.0000737621754886 0.2499949023085115 0.2773580867451457 O
atom_frac 0.1667677873201405 0.0833333069127589 0.3059477261862277 O
atom_frac -0.0000042660699954 0.0833333057354704 0.0559641677032916 O
atom_frac 0.0000191331262475 0.0833333318847186 0.1940382504563985 O
atom_frac 0.1666642579284965 0.0833333371489254 0.1107024203101340 O
atom_frac 0.0000091149405734 0.2499918433645792 0.1392912715177107 O
atom_frac 0.1666896620447602 0.2500059299071829 0.2226157369180069 O
atom_frac 0.1651982252014501 0.2499437507208320 0.6251617607985517 Ti
atom_frac -0.0004678905337581 0.2495320663859676 0.5416669079957740 Ti
atom_frac 0.1670676211510918 0.0833332799912113 0.3749833386754701 Ti
atom_frac 0.0000711843529883 0.0833333643273143 0.4580466895124422 Ti
atom_frac 0.1671350161676151 0.2500556228575413 0.3606843384388073 O
atom_frac -0.0005821141425835 0.2501423128200154 0.6109363482406097 O
atom_frac 0.1658250735314983 0.0833333576422411 0.6396567307824668 O
atom_frac 0.0002119351938866 0.0833332936437880 0.3891031020273208 O
atom_frac -0.0011895709266348 0.0833333628418940 0.5271088045431040 O
atom_frac 0.1668745283008299 0.0833333721116105 0.4440341187983551 O
atom_frac 0.0001418758022060 0.2494178255433847 0.4723967720021572 O
atom_frac 0.1654843853066027 0.2478818081660259 0.5564857307485218 O
atom_frac 0.1666429097849600 0.2499934019232676 0.9583354150178274 Ti
atom_frac -0.0000080479619746 0.2500604598341663 0.8750052608493935 Ti
atom_frac 0.1666992469096237 0.0833333450039984 0.7085587407870961 Ti
atom_frac -0.0000718932210025 0.0833332699026591 0.7917640792542564 Ti
atom_frac 0.1666003733141077 0.2500126485412141 0.6943767103616952 O
atom_frac -0.0000081475059036 0.2500090617986905 0.9440417858338171 O
atom_frac 0.1666578359558148 0.0833333265324522 0.9726269802794341 O
atom_frac -0.0000509967344790 0.0833333432933846 0.7227618510755981 O
atom_frac -0.0000405470314871 0.0833332894281006 0.8607616890201706 O
atom_frac 0.1666595625520995 0.0833332584050946 0.7775761965184074 O
atom_frac -0.0000050593438032 0.2500737022742247 0.8059749708673259 O
atom_frac 0.1666607741708512 0.2500151188636174 0.8893010141827596 O
atom_frac 0.1667177898441016 0.5833332959548780 0.2916371671633813 Ti
atom_frac 0.0000552028021051 0.5833333383192313 0.2083023323282083 Ti
atom_frac 0.1666645341772133 0.4166645279105204 0.0416668525897282 Ti
atom_frac -0.0000065672385169 0.4166429010102435 0.1249976353437702 Ti
atom_frac 0.1666557236066053 0.5833333346049048 0.0273757223619690 O
atom_frac 0.0000652153302720 0.5833333093472847 0.2773350288248696 O
atom_frac 0.1667773180214160 0.4167068926846276 0.3059685680930694 O
atom_frac -0.0000046154860304 0.4166560809366626 0.0559620794772837 O
atom_frac 0.0000152095535365 0.4166607594893362 0.1940326720465931 O
atom_frac 0.1666651133199242 0.4166589278133452 0.1107027723242761 O
atom_frac 0.0000139511821484 0.5833333356855525 0.1392823300130398 O
atom_frac 0.1667040942533418 0.5833333284242748 0.2226147302911843 O
atom_frac 0.1636883340749100 0.5833333487713742 0.6252078018415711 Ti
atom_frac -0.0009342610425141 0.5833333609383351 0.5400638448636375 Ti
atom_frac 0.1661661320204320 0.4167408224967943 0.3750069212513910 Ti
atom_frac -0.0000563471665975 0.4151980246083068 0.4581713207937770 Ti
atom_frac 0.1668153031521595 0.5833333079639565 0.3607378341244604 O
atom_frac 0.0000956443338010 0.5833333525892034 0.6103239229438188 O
atom_frac 0.1653124420589382 0.4161265770455688 0.6393166184940062 O
atom_frac 0.0000125482879309 0.4166002700098057 0.3889569634159166 O
atom_frac -0.0021181851710800 0.4154842593142963 0.5268479267856793 O
atom_frac 0.1661264733410673 0.4153119766373555 0.4440164185633967 O
atom_frac -0.0001871538645834 0.5833333661894176 0.4721239304763848 O
atom_frac 0.1620389235202132 0.5833333809749764 0.5547213935325334 O
atom_frac 0.1666381195030015 0.5833333377778475 0.9583387333645491 Ti
atom_frac -0.0000101629251805 0.5833332730005689 0.8750059074407236 Ti
atom_frac 0.1667408697000853 0.4161663768034666 0.7083267259751709 Ti
atom_frac 0.0000003277720817 0.4167017630649108 0.7916626346218520 Ti
atom_frac 0.1671845664889337 0.5833333654146716 0.6935988067509444 O
atom_frac -0.0000075638236141 0.5833333393427002 0.9440480283964087 O
atom_frac 0.1666589267145730 0.4166650909484689 0.9726303107616348 O
atom_frac 0.0000556545984941 0.4171351447667976 0.7226493293696810 O
atom_frac 0.0000059494045926 0.4166895976926432 0.8607179389136792 O
atom_frac 0.1667069458433715 0.4167772718103215 0.7773644596370231 O
atom_frac 0.0000039173631025 0.5833332771149643 0.8059849074020352 O
atom_frac 0.1666626801454872 0.5833332879732269 0.8893067315650441 O
atom_frac 0.1667018788957151 0.9166663108955008 0.2916704030628063 Ti
atom_frac 0.0000605454204168 0.9166747189947759 0.2083284459203539 Ti
atom_frac 0.1666645382975088 0.7500021471868492 0.0416668511388552 Ti
atom_frac -0.0000065715988302 0.7500237737805485 0.1249976333062025 Ti
atom_frac 0.1666560939343529 0.9166713016974649 0.0273715976259627 O
atom_frac 0.0000737627892800 0.9166717238514369 0.2773580883361257 O
atom_frac 0.1667773091386549 0.7499597202329934 0.3059685682596887 O
atom_frac -0.0000046179485071 0.7500106112362784 0.0559620784263848 O
atom_frac 0.0000152102379664 0.7500059080740353 0.1940326728758115 O
atom_frac 0.1666651137213660 0.7500077353702215 0.1107027687301802 O
atom_frac 0.0000091246771093 0.9166748210346412 0.1392912738558069 O
atom_frac 0.1666896624752636 0.9166607286897402 0.2226157374425483 O
atom_frac 0.1651982334866771 0.9167229366793915 0.6251617514446437 Ti
atom_frac -0.0004678943674409 0.9171346528545079 0.5416669088958962 Ti
atom_frac 0.1661661402314905 0.7499257330408710 0.3750069232410465 Ti
atom_frac -0.0000563457116609 0.7514687145195267 0.4581713197885292 Ti
atom_frac 0.1671350321686028 0.9166109931415558 0.3606843381027794 O
atom_frac -0.0005821104453355 0.9165244453990704 0.6109363478659906 O
atom_frac 0.1653124219842476 0.7505401529214266 0.6393166129406006 O
atom_frac 0.0000125508411130 0.7500663490882967 0.3889569641462441 O
atom_frac -0.0021181896382081 0.7511824766529439 0.5268479278771243 O
atom_frac 0.1661264753215526 0.7513547560228993 0.4440164188479231 O
atom_frac 0.0001418722474256 0.9172489039050590 0.4723967697813492 O
atom_frac 0.1654843895096619 0.9187849357320872 0.5564857267024582 O
atom_frac 0.1666429002078460 0.9166732628314277 0.9583354133658782 Ti
atom_frac -0.0000080563259986 0.9166060657046253 0.8750052409277008 Ti
atom_frac 0.1667408724451263 0.7505003345318022 0.7083267241691172 Ti
atom_frac 0.0000003224724906 0.7499647337627663 0.7916626330513090 Ti
atom_frac 0.1666004296651127 0.9166540700091876 0.6943767070646287 O
atom_frac -0.0000081385304083 0.9166575685459057 0.9440417855357979 O
atom_frac 0.1666589291022681 0.7500015757580050 0.9726303059626857 O
atom_frac 0.0000556552867765 0.7495315928455946 0.7226493168857382 O
atom_frac 0.0000059600319371 0.7499769628533116 0.8607179308699821 O
atom_frac 0.1667069468771185 0.7498892971105700 0.7773644536601759 O
atom_frac -0.0000050989301198 0.9165928746901514 0.8059749723581697 O
atom_frac 0.1666607667564345 0.9166514691551830 0.8893010052895477 O
atom_frac 0.4999648004470008 0.2500002784224417 0.2916704033574503 Ti
atom_frac 0.3333333419848710 0.2499898417256088 0.2083278048146728 Ti
atom_frac 0.5000040440837358 0.0833333352716692 0.0416690998942019 Ti
atom_frac 0.3333333458919865 0.0833333330080197 0.1249943128275218 Ti
atom_frac 0.5000105852342662 0.2499953640646683 0.0273715997436873 O
atom_frac 0.3333333408442569 0.2500038387866190 0.2773481734959258 O
atom_frac 0.4998988950983546 0.0833333067701096 0.3059477259667046 O
atom_frac 0.3333333474129793 0.0833333267300279 0.0559598140778482 O
atom_frac 0.3333333403404053 0.0833333293431699 0.1940328992071169 O
atom_frac 0.5000024195297244 0.0833333259310852 0.1107024205359248 O
atom_frac 0.3333333456361071 0.2499924379007803 0.1392850519058669 O
atom_frac 0.4999770171132649 0.2500059302513288 0.2226157380534363 O
atom_frac 0.5014684093264818 0.2499437629853408 0.6251617546530088 Ti
atom_frac 0.3333333102790517 0.2490657342838118 0.5432696232400086 Ti
atom_frac 0.4995990881964756 0.0833332799238302 0.3749833391118415 Ti
atom_frac 0.3333333541234040 0.0833334403620145 0.4587288429071402 Ti
atom_frac 0.4995316863024665 0.2500556234010388 0.3606843392890492 O
atom_frac 0.3333333198013472 0.2498129431354509 0.6112090085282799 O
atom_frac 0.5008415571329028 0.0833333573922614 0.6396567286689020 O
atom_frac 0.3333333482043421 0.0833333455029302 0.3894086202985435 O
atom_frac 0.3333333194289776 0.0833333934553114 0.5275342872743931 O
atom_frac 0.4997921706742798 0.0833333708628363 0.4440341182806716 O
atom_frac 0.3333333565970116 0.2500953744644805 0.4730088366410776 O
atom_frac 0.5011822481687366 0.2478818333124982 0.5564857291570537 O
atom_frac 0.5000237804518627 0.2499934087236085 0.9583354115455641 Ti
atom_frac 0.3333333378360904 0.2500552054776847 0.8750313643450172 Ti
atom_frac 0.4999674284321042 0.0833333533746399 0.7085587321342056 Ti
atom_frac 0.3333333439366579 0.0833333349290667 0.7918005463778214 Ti
atom_frac 0.5000662671252912 0.2500126575092717 0.6943767019918077 O
atom_frac 0.3333333389482558 0.2500139653475814 0.9440507341166499 O
atom_frac 0.5000088584755839 0.0833333361922432 0.9726269820749309 O
atom_frac 0.3333333397399556 0.0833334140366438 0.7227658419317928 O
atom_frac 0.3333333300022075 0.0833333097912403 0.8607864783702422 O
atom_frac 0.5000071254802637 0.0833332680670426 0.7775762017969102 O
atom_frac 0.3333333319245236 0.2500652062338622 0.8059980199631827 O
atom_frac 0.5000059128211496 0.2500151091895454 0.8893009998309757 O
atom_frac 0.4999488863305694 0.5833332963051404 0.2916371685899873 Ti
atom_frac 0.3333333421635247 0.5833333336357883 0.2082953950323957 Ti
atom_frac 0.5000021380169389 0.4166645278798136 0.0416668449655637 Ti
atom_frac 0.3333333385126016 0.4166381254527264 0.1249943289341729 Ti
atom_frac 0.5000109496030389 0.5833333300328079 0.0273757123179591 O
atom_frac 0.3333333401957789 0.5833333055058390 0.2773464404917934 O
atom_frac 0.4998893628907212 0.4167068922142201 0.3059685688871182 O
atom_frac 0.3333333426976317 0.4166557808565529 0.0559579687594526 O
atom_frac 0.3333333408340680 0.4166626696128503 0.1940269749099098 O
atom_frac 0.5000015636845417 0.4166589284025268 0.1107027665774670 O
atom_frac 0.3333333453988555 0.5833333306002417 0.1392826583396228 O
atom_frac 0.4999625842275238 0.5833333276169428 0.2226147315385976 O
atom_frac 0.5029782229660071 0.5833333417064557 0.6252077707080612 Ti
atom_frac 0.3333331895753405 0.5833333872427947 0.5416663608159862 Pt
atom_frac 0.5005005622875891 0.4167408217589496 0.3750069216467414 Ti
atom_frac 0.3333333495083463 0.4136877614963935 0.4581248969888257 Ti
atom_frac 0.4998513888420852 0.5833333074525987 0.3607378345388579 O
atom_frac 0.3333332458310018 0.5833333711359093 0.6113190696285580 O
atom_frac 0.5013541694664195 0.4161265877605508 0.6393166049235463 O
atom_frac 0.3333333439227927 0.4171848657697149 0.3897346087691010 O
atom_frac 0.3333332402730886 0.4120387499729766 0.5286116223036977 O
atom_frac 0.5005402078170671 0.4153119934803597 0.4440164206966807 O
atom_frac 0.3333332842976046 0.5833333775911466 0.4720130567406996 O
atom_frac 0.5046275125996921 0.5833333787566146 0.5547213694444424 O
atom_frac 0.5000285706624779 0.5833333309063271 0.9583387296929212 Ti
atom_frac 0.3333333374992371 0.5833333210658137 0.8750383165295207 Ti
atom_frac 0.4999257980639221 0.4161663944555775 0.7083267141795605 Ti
atom_frac 0.3333333362586038 0.4167177929086646 0.7916958611811381 Ti
atom_frac 0.4994820459075394 0.5833333618662514 0.6935987915218385 O
atom_frac 0.3333333388690998 0.5833333445152860 0.9440504346635161 O
atom_frac 0.5000077608360262 0.4166650908316026 0.9726303022619425 O
atom_frac 0.3333333310868211 0.4168159346258407 0.7225958092744186 O
atom_frac 0.3333333408090272 0.4167040461496808 0.8607189414817927 O
atom_frac 0.4999597296249010 0.4167772762683498 0.7773644539156471 O
atom_frac 0.3333333310315881 0.5833333019708330 0.8059866673791450 O
atom_frac 0.5000040063994223 0.5833332987118358 0.8893067169701631 O
atom_frac 0.4999647972948815 0.9166663114298763 0.2916704041174785 Ti
atom_frac 0.3333333407952401 0.9166768206030309 0.2083278041068915 Ti
atom_frac 0.5000021421967124 0.7500021406794326 0.0416668448033167 Ti
atom_frac 0.3333333460316171 0.7500285405585455 0.1249943274930446 Ti
atom_frac 0.5000105901125577 0.9166713019401328 0.0273716074480086 O
atom_frac 0.3333333408218981 0.9166627516851908 0.2773481729444195 O
atom_frac 0.4998893712731173 0.7499597205863403 0.3059685693910933 O
atom_frac 0.3333333466848309 0.7500108930329962 0.0559579678322765 O
atom_frac 0.3333333418104044 0.7500039875041014 0.1940269736724838 O
atom_frac 0.5000015630412655 0.7500077460082766 0.1107027685360918 O
atom_frac 0.3333333305094743 0.9166742222222212 0.1392850519289052 O
atom_frac 0.4999770159392891 0.9166607291511496 0.2226157375401541 O
atom_frac 0.5014684058586695 0.9167229330409665 0.6251617497370846 Ti
atom_frac 0.3333333148506773 0.9176010617571110 0.5432696100486295 Ti
atom_frac 0.5005005542443519 0.7499257331106052 0.3750069237202922 Ti
atom_frac 0.3333333491682120 0.7529790896797524 0.4581249016846345 Ti
atom_frac 0.4995316705947946 0.9166109928120711 0.3606843385480696 O
atom_frac 0.3333333217195623 0.9168537714968140 0.6112090011461729 O
atom_frac 0.5013541785447649 0.7505401422348441 0.6393166054762974 O
atom_frac 0.3333333440224983 0.7494817571119690 0.3897346081188055 O
atom_frac 0.3333332422903600 0.7546280299894286 0.5286116123390153 O
atom_frac 0.5005402056324584 0.7513547401534381 0.4440164214491492 O
atom_frac 0.3333333557762114 0.9165714179518627 0.4730088263224204 O
atom_frac 0.5011822466741742 0.9187849124995682 0.5564857263903230 O
atom_frac 0.5000237673254251 0.9166732630456975 0.9583354074174314 Ti
atom_frac 0.3333333495768790 0.9166114354333191 0.8750313572653832 Ti
atom_frac 0.4999258026974617 0.7505003089018223 0.7083267138379867 Ti
atom_frac 0.3333333425749450 0.7499488501138971 0.7916958606082729 Ti
atom_frac 0.5000662605196011 0.9166540647689067 0.6943767021587003 O
atom_frac 0.3333333197478926 0.9166527146864567 0.9440507334652944 O
atom_frac 0.5000077656402068 0.7500015662046560 0.9726303071293347 O
atom_frac 0.3333333364596569 0.7498507909040987 0.7225958099522192 O
atom_frac 0.3333333291218410 0.7499625625788849 0.8607189396747671 O
atom_frac 0.4999597388203251 0.7498892826441715 0.7773644579094470 O
atom_frac 0.3333333676880550 0.9166014052450003 0.8059980189628608 O
atom_frac 0.5000059069883237 0.9166514680758975 0.8893010033933236 O
atom_frac 0.8333333398735062 0.2499280867627665 0.2915689706981736 Ti
atom_frac 0.6666061335956845 0.2499919533323338 0.2083284448141700 Ti
atom_frac 0.8333333345173444 0.0833333317704516 0.0416668526461494 Ti
atom_frac 0.6666723068564038 0.0833333350998452 0.1250008431395220 Ti
atom_frac 0.8333333440024913 0.2499957009379722 0.0273695135876784 O
atom_frac 0.6665929193645136 0.2499949019260556 0.2773580882420841 O
atom_frac 0.8333333416323883 0.0833333225939577 0.3057952985406849 O
atom_frac 0.6666709358473990 0.0833333554420270 0.0559641694239784 O
atom_frac 0.6666475468253438 0.0833333350949409 0.1940382531606207 O
atom_frac 0.8333333399682619 0.0833333282770412 0.1107063744032041 O
atom_frac 0.6666575574843916 0.2499918458871065 0.1392912747094120 O
atom_frac 0.8333333426282479 0.2499595148981951 0.2225720084602205 O
atom_frac 0.8333333269804548 0.2500713144534326 0.6252863905206850 Ti
atom_frac 0.6671345281225348 0.2495320666869992 0.5416669105104591 Ti
atom_frac 0.8333333515640458 0.0833333262454805 0.3748850487095372 Ti
atom_frac 0.6665955258387757 0.0833333622969423 0.4580466915739879 Ti
atom_frac 0.8333333461229309 0.2499489741620859 0.3605718313639722 O
atom_frac 0.6672487509045124 0.2501422944615166 0.6109363507292199 O
atom_frac 0.8333333282187518 0.0833333757120664 0.6396091539011161 O
atom_frac 0.6664547621969469 0.0833332939839940 0.3891031025780536 O
atom_frac 0.6678562075228569 0.0833333616206384 0.5271088072550122 O
atom_frac 0.8333333477665882 0.0833333860127979 0.4437238981037652 O
atom_frac 0.6665248312910909 0.2494178288316637 0.4723967755091802 O
atom_frac 0.8333333204928045 0.2488100099747340 0.5562248945275960 O
atom_frac 0.8333333264859424 0.2499943401778052 0.9583322006094510 Ti
atom_frac 0.6666747283319462 0.2500604722597914 0.8750052435762644 Ti
atom_frac 0.8333333347574016 0.0833334258909706 0.7084486356991153 Ti
atom_frac 0.6667385642981826 0.0833332471907656 0.7917640706993025 Ti
atom_frac 0.8333333724955599 0.2502120074901992 0.6942305492510511 O
atom_frac 0.6666748259440874 0.2500090948126235 0.9440417881631701 O
atom_frac 0.8333333230628276 0.0833333242709587 0.9726266745692300 O
atom_frac 0.6667176669145902 0.0833333528024757 0.7227618552358969 O
atom_frac 0.6667072343383738 0.0833332772123092 0.8607616870155426 O
atom_frac 0.8333333230659429 0.0833333262166349 0.7775377442843207 O
atom_frac 0.6666717408909386 0.2500736838412826 0.8059749657653655 O
atom_frac 0.8333333302680015 0.2500190940155296 0.8892954264274855 O
atom_frac 0.8333333394528508 0.5833333306405272 0.2915325050806485 Ti
atom_frac 0.6666114739104362 0.5833333333547814 0.2083023343659611 Ti
atom_frac 0.8333333436687684 0.4166626033756046 0.0416646034897348 Ti
atom_frac 0.6666732466206217 0.4166429010111879 0.1249976312731005 Ti
atom_frac 0.8333333434641624 0.5833333254019346 0.0273738802614559 O
atom_frac 0.6666014641907669 0.5833333092319476 0.2773350305469174 O
atom_frac 0.8333333365439568 0.4166595290449678 0.3057568572387862 O
atom_frac 0.6666712898958902 0.4166560797728239 0.0559620783021083 O
atom_frac 0.6666514693535192 0.4166607601592346 0.1940326738647589 O
atom_frac 0.8333333403459608 0.4166578153394012 0.1107060769632632 O
atom_frac 0.6666527207959483 0.5833333337798127 0.1392823332222722 O
atom_frac 0.8333333412086348 0.5833333417336969 0.2225472053302771 O
atom_frac 0.8333333209874921 0.5833334041778953 0.6246038981306602 Ti
atom_frac 0.6676007442034730 0.5833333620775867 0.5400638565511995 Ti
atom_frac 0.8333333471271769 0.4166992303908464 0.3747749246112705 Ti
atom_frac 0.6667230542406015 0.4151980361838495 0.4581713220670776 Ti
atom_frac 0.8333333486606178 0.5833333200786428 0.3605678273494470 O
atom_frac 0.6665708976808538 0.5833333688802330 0.6103239135637391 O
atom_frac 0.8333333022123355 0.4168747186175304 0.6392989083905952 O
atom_frac 0.6666541394784347 0.4166002742281409 0.3889569654597831 O
atom_frac 0.6687847912843097 0.4154842714243307 0.5268479323906278 O
atom_frac 0.8333333430825151 0.4158251683101427 0.4436763167421810 O
atom_frac 0.6668538292981151 0.5833333664551529 0.4721239336476841 O
atom_frac 0.8333332770664348 0.5833333766332292 0.5557992373756780 O
atom_frac 0.8333333259617839 0.5833333278155554 0.9583387630705873 Ti
atom_frac 0.6666768428639065 0.5833332607359365 0.8750058898447070 Ti
atom_frac 0.8333333419464761 0.4170679333341066 0.7083503208940423 Ti
atom_frac 0.6666663485582951 0.4167017623818450 0.7916626361881975 Ti
atom_frac 0.8333333649636524 0.5833333727977016 0.6939249853037585 O
atom_frac 0.6666742419013817 0.5833333047339931 0.9440480305299456 O
atom_frac 0.8333333297413665 0.4166642253401547 0.9726306590849589 O
atom_frac 0.6666110163137399 0.4171351476201132 0.7226493136620777 O
atom_frac 0.6666607260282439 0.4166895975447799 0.8607179242927229 O
atom_frac 0.8333333313164759 0.4167676262943337 0.7773853173541372 O
atom_frac 0.6666627636557042 0.5833332956124204 0.8059849022616682 O
atom_frac 0.8333333302051413 0.5833332759578719 0.8893007970267124 O
atom_frac 0.8333333421785509 0.9167385709860945 0.2915689742153642 Ti
atom_frac 0.6666061338582963 0.9166747182211566 0.2083284474012827 Ti
atom_frac 0.8333333350340849 0.7500040589522377 0.0416646039816346 Ti
atom_frac 0.6666732420669680 0.7500237690028796 0.1249976338535017 Ti
atom_frac 0.8333333326770610 0.9166709535623372 0.0273695142920855 O
atom_frac 0.6665929187890692 0.9166717242999619 0.2773580892423783 O
atom_frac 0.8333333371251250 0.7500071099938940 0.3057568571054807 O
atom_frac 0.6666712880439836 0.7500105626892545 0.0559620801928334 O
atom_frac 0.6666514674469650 0.7500059043096583 0.1940326757517016 O
atom_frac 0.8333333402017920 0.7500088564703697 0.1107060779611662 O
atom_frac 0.6666575625738325 0.9166748205244614 0.1392912755069572 O
atom_frac 0.8333333433055997 0.9167071643819655 0.2225720088215137 O
atom_frac 0.8333333227209592 0.9165955049391473 0.6252863924084680 Ti
atom_frac 0.6671345278959102 0.9171346511893802 0.5416669116564410 Ti
atom_frac 0.8333333470347268 0.7499674136506573 0.3747749261573596 Ti
atom_frac 0.6667230531899982 0.7514687049730235 0.4581713212030801 Ti
atom_frac 0.8333333459194547 0.9167176654597612 0.3605718303950820 O
atom_frac 0.6672487463017139 0.9165244467438544 0.6109363485999949 O
atom_frac 0.8333333128879568 0.7497920325056001 0.6392989049834621 O
atom_frac 0.6666541369041848 0.7500663443086901 0.3889569659494032 O
atom_frac 0.6687847937902272 0.7511824652109103 0.5268479326665239 O
atom_frac 0.8333333433664383 0.7508415795840010 0.4436763161658692 O
atom_frac 0.6665248358660146 0.9172488999347151 0.4723967726681703 O
atom_frac 0.8333333174091742 0.9178567338837654 0.5562248959068272 O
atom_frac 0.8333333483958215 0.9166723173449802 0.9583322021937816 Ti
atom_frac 0.6666747247976897 0.9166060664370054 0.8750052666345621 Ti
atom_frac 0.8333333341193165 0.7495989118095716 0.7083503160077206 Ti
atom_frac 0.6666663463692816 0.7499647558244352 0.7916626160264726 Ti
atom_frac 0.8333333240018437 0.9164547381773217 0.6942305495865619 O
atom_frac 0.6666748359558258 0.9166575703216709 0.9440417889431401 O
atom_frac 0.8333333224629532 0.7500024217040406 0.9726306619254986 O
atom_frac 0.6666110104216176 0.7495315800301066 0.7226493207154904 O
atom_frac 0.6666607269577206 0.7499769751544374 0.8607179284081511 O
atom_frac 0.8333333210619825 0.7498989442833641 0.7773853138205166 O
atom_frac 0.6666717445674027 0.9165928744948879 0.8059749680985956 O
atom_frac 0.8333333433786977 0.9166474372205782 0.8892954281092598 O
