#=======================================================
# FHI-aims file: ./geometry.in
# Created using the Atomic Simulation Environment (ASE)
# Wed Jul 17 01:04:53 2024
#=======================================================
lattice_vector 11.3550000000000004 0.0000000000000000 0.0000000000000000 
lattice_vector 0.0000000000000000 11.3550000000000004 0.0000000000000000 
lattice_vector 0.0000000000000000 0.0000000000000000 28.5398999999999958 
atom_frac 0.1666908118919763 0.2500952872481384 0.2916926107421123 Ti
atom_frac 0.0000431402713087 0.2499919904766706 0.2083433799890413 Ti
atom_frac 0.1666671800975329 0.0833333383045223 0.0416663638077693 Ti
atom_frac -0.0000010152167100 0.0833333482332589 0.1250016025627688 Ti
atom_frac 0.1666608923857696 0.2499975626768213 0.0273707331463222 O
atom_frac 0.0000565895903731 0.2500131244210528 0.2773836825144965 O
atom_frac 0.1666971702236923 0.0833332953164450 0.3059813223035733 O
atom_frac -0.0000024587863776 0.0833333349203218 0.0559633584099165 O
atom_frac 0.0000090716948795 0.0833333593689162 0.1940440527836430 O
atom_frac 0.1666627150641809 0.0833333673009824 0.1107031228094044 O
atom_frac 0.0000054543688548 0.2499912735269739 0.1393011470897239 O
atom_frac 0.1666753201683678 0.2500196764518883 0.2226374687566418 O
atom_frac 0.1652061153481662 0.2501016984487986 0.6252457763344823 Ti
atom_frac -0.0003679195599162 0.2496320589091891 0.5416668912582335 Ti
atom_frac 0.1669329594161560 0.0833331817752680 0.3749568744849256 Ti
atom_frac 0.0000444527587981 0.0833333596258284 0.4580809333594728 Ti
atom_frac 0.1672219511058835 0.2500575796111444 0.3607179112065563 O
atom_frac -0.0005221937210372 0.2501562517626039 0.6109116586687088 O
atom_frac 0.1659623748720372 0.0833332685035040 0.6396027907476589 O
atom_frac 0.0002178620680656 0.0833333807849361 0.3891310259565710 O
atom_frac -0.0010869993088948 0.0833333321312751 0.5271359442632301 O
atom_frac 0.1668322589095124 0.0833333679832198 0.4440601373284133 O
atom_frac 0.0001559545326070 0.2494777758943766 0.4724214501730948 O
atom_frac 0.1656610118613505 0.2480593659316372 0.5564463707381710 O
atom_frac 0.1666382241263374 0.2499983028115839 0.9583331229639102 Ti
atom_frac -0.0000080275373484 0.2500431637249803 0.8749903106560308 Ti
atom_frac 0.1667200836545018 0.0833331852854365 0.7084613190195007 Ti
atom_frac 0.0000213000857817 0.0833334752879080 0.7917262080717272 Ti
atom_frac 0.1665259107828516 0.2501164121181543 0.6942869004142957 O
atom_frac -0.0000087304800930 0.2500054181985605 0.9440318874822623 O
atom_frac 0.1666637828579899 0.0833333407604170 0.9726261824612662 O
atom_frac -0.0000241360399915 0.0833332848816314 0.7227121617959474 O
atom_frac -0.0000190854328895 0.0833334117965410 0.8607242239098133 O
atom_frac 0.1666784834056232 0.0833333333307112 0.7775189838201668 O
atom_frac 0.0000131705223029 0.2500566377848224 0.8059493749235818 O
atom_frac 0.1666527129594409 0.2500049057477766 0.8892951423791203 O
atom_frac 0.1666756411445482 0.5833332944917087 0.2916666407797207 Ti
atom_frac 0.0000474377974933 0.5833333382898929 0.2083082387780761 Ti
atom_frac 0.1666685645616223 0.4166685001433314 0.0416662266578078 Ti
atom_frac -0.0000017082201996 0.4166382171290082 0.1249998835988291 Ti
atom_frac 0.1666615616056958 0.5833333439688057 0.0273734631245991 O
atom_frac 0.0000520805977713 0.5833333308997348 0.2773526177152295 O
atom_frac 0.1668709939860879 0.4167143735305940 0.3060000124793562 O
atom_frac -0.0000024299042481 0.4166609353908576 0.0559629223235857 O
atom_frac 0.0000048685512390 0.4166526988883633 0.1940385153275422 O
atom_frac 0.1666634403806313 0.4166647466567632 0.1107044153674051 O
atom_frac 0.0000040131398489 0.5833333339618791 0.1392886850916409 O
atom_frac 0.1666771137388856 0.5833333062073759 0.2226290650740663 O
atom_frac 0.1641446837810994 0.5833332597888967 0.6245530912008113 Ti
atom_frac -0.0012895240840732 0.5833333425014612 0.5400171264696167 Ti
atom_frac 0.1667373782992109 0.4167780787879982 0.3750822902121649 Ti
atom_frac 0.0001016974738548 0.4152059883089783 0.4580872969173715 Ti
atom_frac 0.1667225918235360 0.5833333072671361 0.3607541902631347 O
atom_frac -0.0001339251325402 0.5833332682086603 0.6101681309869406 O
atom_frac 0.1654541004691757 0.4163746618331677 0.6392293993602217 O
atom_frac 0.0001164295625632 0.4165257376524246 0.3890467639616064 O
atom_frac -0.0019405574308957 0.4156609011665979 0.5268873026000240 O
atom_frac 0.1663746060776137 0.4154537488461059 0.4441036614402744 O
atom_frac -0.0001322587191374 0.5833333361628090 0.4721131513157896 O
atom_frac 0.1625820728555977 0.5833333551549817 0.5550800766611715 O
atom_frac 0.1666503748921729 0.5833333367433210 0.9583320600645800 Ti
atom_frac -0.0000127171010998 0.5833334105168194 0.8749912850625220 Ti
atom_frac 0.1667781246953967 0.4167373638345397 0.7082513710120312 Ti
atom_frac 0.0000952911482795 0.4166909276460720 0.7916404286620626 Ti
atom_frac 0.1674914826841189 0.5833332811793523 0.6935455958427148 O
atom_frac -0.0000071346563856 0.5833333547931745 0.9440397183779989 O
atom_frac 0.1666646931192201 0.4166634269457244 0.9726286277919834 O
atom_frac 0.0000575953349081 0.4172217684834644 0.7226157657500524 O
atom_frac 0.0000196276735336 0.4166754129816403 0.8606961945388415 O
atom_frac 0.1667144302143825 0.4168709651647738 0.7773330258322967 O
atom_frac -0.0000367642604214 0.5833334115551958 0.8059675701108495 O
atom_frac 0.1666579236854935 0.5833333794405755 0.8892982943172901 O
atom_frac 0.1666907880540880 0.9165713302993947 0.2916926072612452 Ti
atom_frac 0.0000430753325672 0.9166746840871751 0.2083433660048447 Ti
atom_frac 0.1666685626620122 0.7499981866213217 0.0416674623122579 Ti
atom_frac -0.0000017046178158 0.7500284482967011 0.1249998879820435 Ti
atom_frac 0.1666608993018539 0.9166691219879094 0.0273707332303741 O
atom_frac 0.0000565814244356 0.9166535024520390 0.2773836670456327 O
atom_frac 0.1668710326861285 0.7499522086779197 0.3059999988636076 O
atom_frac -0.0000024324483452 0.7500057555120271 0.0559629203883608 O
atom_frac 0.0000048872159842 0.7500139520906813 0.1940385105804794 O
atom_frac 0.1666634415950430 0.7500019000718535 0.1107044158241726 O
atom_frac 0.0000054692225396 0.9166754048394332 0.1393011373156809 O
atom_frac 0.1666753292090969 0.9166470079898519 0.2226374720030740 O
atom_frac 0.1652061006052821 0.9165648109400052 0.6252457809918198 Ti
atom_frac -0.0003679186317866 0.9170346257316470 0.5416668952564168 Ti
atom_frac 0.1667373882854796 0.7498884825246830 0.3750822833124803 Ti
atom_frac 0.0001017000461539 0.7514607339396127 0.4580873012147778 Ti
atom_frac 0.1672218346485549 0.9166089913254418 0.3607179102137408 O
atom_frac -0.0005221904453421 0.9165102801463905 0.6109116594982448 O
atom_frac 0.1654540966127332 0.7502918689501116 0.6392294028560014 O
atom_frac 0.0001164393856187 0.7501408841912316 0.3890467650261937 O
atom_frac -0.0019405715407060 0.7510057743344231 0.5268872999907703 O
atom_frac 0.1663746134163535 0.7512128678687654 0.4441036507003785 O
atom_frac 0.0001560284180130 0.9171888958834541 0.4724214491883781 O
atom_frac 0.1656610044150394 0.9186073090026859 0.5564463770620058 O
atom_frac 0.1666382178772260 0.9166683844533609 0.9583331175597594 Ti
atom_frac -0.0000080347357716 0.9166236524254733 0.8749903091998853 Ti
atom_frac 0.1667781219213143 0.7499290299157721 0.7082513775177073 Ti
atom_frac 0.0000952846856850 0.7499760017058548 0.7916404314088579 Ti
atom_frac 0.1665259224001062 0.9165501431340514 0.6942869071195172 O
atom_frac -0.0000087344940310 0.9166612831356948 0.9440318880425632 O
atom_frac 0.1666646973461367 0.7500032641603747 0.9726286234115022 O
atom_frac 0.0000575962051252 0.7494447967906149 0.7226157674022486 O
atom_frac 0.0000196474682809 0.7499914137451927 0.8606961967890552 O
atom_frac 0.1667144259428920 0.7497957648846608 0.7773330298260569 O
atom_frac 0.0000131318652361 0.9166101871253155 0.8059493738710383 O
atom_frac 0.1666527079934421 0.9166618683407642 0.8892951402563785 O
atom_frac 0.4999758584383018 0.2500952674567710 0.2916925830504726 Ti
atom_frac 0.3333333030843513 0.2499872367870329 0.2083424019966219 Ti
atom_frac 0.4999994902013983 0.0833333354688575 0.0416663720845241 Ti
atom_frac 0.3333333095781691 0.0833333375771155 0.1249978190097507 Ti
atom_frac 0.5000057574301867 0.2499975828923928 0.0273707419979353 O
atom_frac 0.3333333340962634 0.2499631082052833 0.2773654758226922 O
atom_frac 0.4999695187974308 0.0833332939216078 0.3059813246041093 O
atom_frac 0.3333333145315097 0.0833333441808521 0.0559596314076562 O
atom_frac 0.3333332978069553 0.0833333370944354 0.1940360037139953 O
atom_frac 0.5000039520115704 0.0833333023528032 0.1107031500583564 O
atom_frac 0.3333332884888200 0.2499928771901496 0.1392933349959218 O
atom_frac 0.4999913399419216 0.2500196480426728 0.2226374675833504 O
atom_frac 0.5014604986158936 0.2501016929726577 0.6252457761255409 Ti
atom_frac 0.3333332995899690 0.2487103207122484 0.5433164056140355 Ti
atom_frac 0.4997337621849063 0.0833332990099572 0.3749568861699528 Ti
atom_frac 0.3333333795853309 0.0833334649258800 0.4585780672121904 Ti
atom_frac 0.4994447716155771 0.2500576011286046 0.3607179073798031 O
atom_frac 0.3333333089775027 0.2498675926482708 0.6112198210499982 O
atom_frac 0.5007042328631995 0.0833332713956721 0.6396027879254154 O
atom_frac 0.3333333405482591 0.0833332302209906 0.3894847892249889 O
atom_frac 0.3333333255261860 0.0833333580728508 0.5277507203781108 O
atom_frac 0.4998344466182746 0.0833333328530352 0.4440601285749325 O
atom_frac 0.3333333882368214 0.2498658492540244 0.4731646815636060 O
atom_frac 0.5010056065349796 0.2480593863370366 0.5564463731465434 O
atom_frac 0.5000284366827187 0.2499982748837137 0.9583331509424665 Ti
atom_frac 0.3333333641608268 0.2500474426698410 0.8750254323039213 Ti
atom_frac 0.4999465793235166 0.0833331848996436 0.7084613155492436 Ti
atom_frac 0.3333333382190252 0.0833333983880957 0.7917606737727162 Ti
atom_frac 0.5001407561398111 0.2501164050871719 0.6942868960707008 O
atom_frac 0.3333333362161496 0.2500040392975428 0.9440443564749543 O
atom_frac 0.5000028857369607 0.0833333379025259 0.9726262089761296 O
atom_frac 0.3333333333307890 0.0833332302741609 0.7226994460898751 O
atom_frac 0.3333333433114635 0.0833333579140112 0.8607547268718765 O
atom_frac 0.4999881771734398 0.0833333311213188 0.7775189855321237 O
atom_frac 0.3333333287080385 0.2500521021667353 0.8059804301738398 O
atom_frac 0.5000139633395345 0.2500048597267684 0.8892951409575695 O
atom_frac 0.4999910373833924 0.5833333133408795 0.2916666151168842 Ti
atom_frac 0.3333333074513766 0.5833333320296129 0.2083258435534941 Ti
atom_frac 0.4999981071614284 0.4166686205741218 0.0416668348724532 Ti
atom_frac 0.3333333220744162 0.4166503855239245 0.1250009705272225 Ti
atom_frac 0.5000051341650095 0.5833333485401356 0.0273734788573858 O
atom_frac 0.3333333361442507 0.5833332757869139 0.2773544669502527 O
atom_frac 0.4997956751224075 0.4167143754178946 0.3059999936228889 O
atom_frac 0.3333333426074921 0.4166616164584110 0.0559601891167361 O
atom_frac 0.3333333107615391 0.4166579172899513 0.1940353848745559 O
atom_frac 0.5000032250311512 0.4166647094491621 0.1107044233212113 O
atom_frac 0.3333333565707597 0.5833333332315790 0.1392902907748665 O
atom_frac 0.4999895519482978 0.5833333496123493 0.2226290674169848 O
atom_frac 0.5025219720786425 0.5833332561140770 0.6245530926198016 Ti
atom_frac 0.3333333258710447 0.5833333617798191 0.5416663908068006 Pd
atom_frac 0.4999293213568816 0.4167780786124236 0.3750822854902688 Ti
atom_frac 0.3333333764028527 0.4141443782153093 0.4587797033932239 Ti
atom_frac 0.4999441154009228 0.5833332839604061 0.3607541880346913 O
atom_frac 0.3333333124031402 0.5833332688105485 0.6108490072032269 O
atom_frac 0.5012125271922357 0.4163746588322894 0.6392293936229201 O
atom_frac 0.3333333733122568 0.4174919590222814 0.3897879120206033 O
atom_frac 0.3333333153780949 0.4125817927184210 0.5282530929973627 O
atom_frac 0.5002920996331258 0.4154537348592529 0.4441036358541551 O
atom_frac 0.3333334159465998 0.5833333652332695 0.4724835842731659 O
atom_frac 0.5040845606069747 0.5833333432821014 0.5550800819409383 O
atom_frac 0.5000163051122353 0.5833333454426273 0.9583320849032573 Ti
atom_frac 0.3333332435732171 0.5833333580298312 0.8750078497614588 Ti
atom_frac 0.4998885442833705 0.4167373619980999 0.7082513680574148 Ti
atom_frac 0.3333333383077104 0.4166756978129997 0.7916663833901210 Ti
atom_frac 0.4991751804949283 0.5833332814790040 0.6935455917894026 O
atom_frac 0.3333333379549427 0.5833333286005358 0.9440427965670349 O
atom_frac 0.5000019636900821 0.4166634254052907 0.9726286253832552 O
atom_frac 0.3333333284501256 0.4167229351197835 0.7225794311651479 O
atom_frac 0.3333333752152689 0.4166771293235355 0.8607045868320197 O
atom_frac 0.4999522320585363 0.4168708970842752 0.7773330247341436 O
atom_frac 0.3333333639811060 0.5833333704623674 0.8059785980248033 O
atom_frac 0.5000087280546122 0.5833333797902404 0.8892982997385739 O
atom_frac 0.4999758616929332 0.9165713321771641 0.2916925826496137 Ti
atom_frac 0.3333334196084289 0.9166794364750430 0.2083424050266389 Ti
atom_frac 0.4999981010730569 0.7499980692602106 0.0416668358006608 Ti
atom_frac 0.3333333180127311 0.7500162872512899 0.1250009745055125 Ti
atom_frac 0.5000057670313863 0.9166690972801529 0.0273707394122435 O
atom_frac 0.3333333324665234 0.9167035117879467 0.2773654761212998 O
atom_frac 0.4997956525977680 0.7499522086410237 0.3060000027329502 O
atom_frac 0.3333333490307585 0.7500050617858484 0.0559601925042732 O
atom_frac 0.3333332824416473 0.7500087436429599 0.1940353897248926 O
atom_frac 0.5000032245761566 0.7500020023326233 0.1107044263066266 O
atom_frac 0.3333332529890176 0.9166737938351426 0.1392933381143636 O
atom_frac 0.4999913563854301 0.9166469933089408 0.2226374640293746 O
atom_frac 0.5014605047578037 0.9165648206803716 0.6252457803639038 Ti
atom_frac 0.3333332959927822 0.9179564106675576 0.5433164129658430 Ti
atom_frac 0.4999293175406898 0.7498883684544855 0.3750822946363735 Ti
atom_frac 0.3333333692101971 0.7525225705014112 0.4587797059005532 Ti
atom_frac 0.4994448429651979 0.9166089934992037 0.3607178997824693 O
atom_frac 0.3333333051428151 0.9167989048327351 0.6112198148136164 O
atom_frac 0.5012125296450018 0.7502918690325064 0.6392293964614505 O
atom_frac 0.3333333393118710 0.7491747013555438 0.3897879038305468 O
atom_frac 0.3333333312117024 0.7540849484362224 0.5282530794013911 O
atom_frac 0.5002920938314857 0.7512129178992437 0.4441036407556885 O
atom_frac 0.3333333239350640 0.9168009039702517 0.4731646723736013 O
atom_frac 0.5010056083219161 0.9186073031824545 0.5564463769558771 O
atom_frac 0.5000284429013204 0.9166684039558481 0.9583331465441082 Ti
atom_frac 0.3333333649193150 0.9166192650070810 0.8750254392313079 Ti
atom_frac 0.4998885465367051 0.7499290321896527 0.7082513734147513 Ti
atom_frac 0.3333333427018235 0.7499911387152297 0.7916663854234142 Ti
atom_frac 0.5001407467714043 0.9165501499951046 0.6942869016788584 O
atom_frac 0.3333333387320790 0.9166626317958282 0.9440443485627604 O
atom_frac 0.5000019586401639 0.7500032686317964 0.9726286262710858 O
atom_frac 0.3333333287095591 0.7499434930550676 0.7225794380043203 O
atom_frac 0.3333333740918240 0.7499895904233342 0.8607045927447198 O
atom_frac 0.4999522369117896 0.7497958351310998 0.7773330285932174 O
atom_frac 0.3333333271290000 0.9166146130294935 0.8059804304730492 O
atom_frac 0.5000139677944945 0.9166619140187779 0.8892951384028573 O
atom_frac 0.8333333349268576 0.2500212972063320 0.2916068271827313 Ti
atom_frac 0.6666235643897246 0.2499919883189896 0.2083433724211051 Ti
atom_frac 0.8333333336008276 0.0833333391721031 0.0416668433466036 Ti
atom_frac 0.6666677104024243 0.0833333391200799 0.1250015925581422 Ti
atom_frac 0.8333333547374085 0.2499975300462259 0.0273702993000888 O
atom_frac 0.6666100893471859 0.2500131347881923 0.2773836646402338 O
atom_frac 0.8333333287400069 0.0833333382596817 0.3058490181265631 O
atom_frac 0.6666691491308879 0.0833333520787855 0.0559633721833201 O
atom_frac 0.6666576386213859 0.0833333250570794 0.1940440607645728 O
atom_frac 0.8333333380526740 0.0833333348447169 0.1107061845755073 O
atom_frac 0.6666612627808132 0.2499912746527963 0.1393011418388334 O
atom_frac 0.8333333509926381 0.2499809461954284 0.2226094503274156 O
atom_frac 0.8333332935056401 0.2500444375519811 0.6252521546869491 Ti
atom_frac 0.6670345116783700 0.2496320544152645 0.5416668914802993 Ti
atom_frac 0.8333333542139318 0.0833333498708926 0.3748758477647112 Ti
atom_frac 0.6666222849944708 0.0833333535596272 0.4580809203946348 Ti
atom_frac 0.8333333424659372 0.2499758520718462 0.3606215080974075 O
atom_frac 0.6671888031145461 0.2501562494420383 0.6109116591302566 O
atom_frac 0.8333333027466143 0.0833332951759501 0.6395561591699662 O
atom_frac 0.6664488477252624 0.0833333503070251 0.3891310276091391 O
atom_frac 0.6677535746440909 0.0833333396637286 0.5271359431723942 O
atom_frac 0.8333333444132310 0.0833333060856997 0.4437768865322796 O
atom_frac 0.6665106988397319 0.2494777735212680 0.4724214458815908 O
atom_frac 0.8333332971795834 0.2489126922596883 0.5561977448851508 O
atom_frac 0.8333333429310447 0.2499989715910392 0.9583314283194833 Ti
atom_frac 0.6666746688974823 0.2500431696598338 0.8749903198667415 Ti
atom_frac 0.8333333357087201 0.0833332545717743 0.7084578403700137 Ti
atom_frac 0.6666453617186168 0.0833334759759404 0.7917262128099724 Ti
atom_frac 0.8333333195085257 0.2502178453629465 0.6942026262979240 O
atom_frac 0.6666753991357399 0.2500054335757528 0.9440319083982387 O
atom_frac 0.8333333364862373 0.0833333450026390 0.9726268630269740 O
atom_frac 0.6666907928786699 0.0833332855182583 0.7227121595426912 O
atom_frac 0.6666857460642234 0.0833334120572250 0.8607242326078767 O
atom_frac 0.8333333338031927 0.0833334686248409 0.7774840178692354 O
atom_frac 0.6666535021469496 0.2500566375190602 0.8059493867427160 O
atom_frac 0.8333333285363999 0.2500091106422055 0.8892896002664435 O
atom_frac 0.8333333271618080 0.5833333381538199 0.2915723641801672 Ti
atom_frac 0.6666192632734030 0.5833333357470311 0.2083082301798791 Ti
atom_frac 0.8333333315758302 0.4166671668038515 0.0416673113533900 Ti
atom_frac 0.6666683911623266 0.4166382133738074 0.1249998909290257 Ti
atom_frac 0.8333333087622705 0.5833333486202102 0.0273740273393344 O
atom_frac 0.6666145947402626 0.5833333164535711 0.2773525952267993 O
atom_frac 0.8333333407914744 0.4166784773045839 0.3058140536832117 O
atom_frac 0.6666690919511521 0.4166609045540772 0.0559629231582724 O
atom_frac 0.6666618283352106 0.4166527061360940 0.1940385105406367 O
atom_frac 0.8333333395145943 0.4166637872274395 0.1107068419707060 O
atom_frac 0.6666626359518698 0.5833333333243143 0.1392886767126777 O
atom_frac 0.8333333445056916 0.5833333468791517 0.2225789301021652 O
atom_frac 0.8333333127287266 0.5833333001351432 0.6247546922798236 Ti
atom_frac 0.6679561481987020 0.5833333481756096 0.5400171234070296 Ti
atom_frac 0.8333333539021978 0.4167200845168998 0.3748723505627432 Ti
atom_frac 0.6665650058730298 0.4152059839483868 0.4580872933598434 Ti
atom_frac 0.8333333484459688 0.5833333295495952 0.3606342145556543 O
atom_frac 0.6668005552475095 0.5833332710035780 0.6101681318265502 O
atom_frac 0.8333333061734138 0.4168323780828543 0.6392728974259819 O
atom_frac 0.6665502453112599 0.4165257446601426 0.3890467579520792 O
atom_frac 0.6686071574064768 0.4156609033187006 0.5268872924096053 O
atom_frac 0.8333333430418275 0.4159625901592236 0.4437302374915852 O
atom_frac 0.6667989264039864 0.5833333360609492 0.4721131459028075 O
atom_frac 0.8333333027973254 0.5833333392177596 0.5555828321665079 O
atom_frac 0.8333333237714732 0.5833333436726359 0.9583352277558402 Ti
atom_frac 0.6666794788664089 0.5833334104393912 0.8749912780259398 Ti
atom_frac 0.8333333323331169 0.4169330648020164 0.7083767744509537 Ti
atom_frac 0.6665713733090713 0.4166909194976670 0.7916404438340547 Ti
atom_frac 0.8333333426988397 0.5833332881973395 0.6938488212570174 O
atom_frac 0.6666738017298750 0.5833333518604362 0.9440397158079901 O
atom_frac 0.8333333481666151 0.4166627031568137 0.9726299106329918 O
atom_frac 0.6666090725992425 0.4172217851934337 0.7226157578844544 O
atom_frac 0.6666470017732289 0.4166753783055161 0.8606961974798918 O
atom_frac 0.8333333365116716 0.4166972757112949 0.7773517337904468 O
atom_frac 0.6667034025808820 0.5833334128325193 0.8059675653865246 O
atom_frac 0.8333333533884968 0.5833334220822846 0.8892976721957934 O
atom_frac 0.8333333551736097 0.9166453797173607 0.2916068332571308 Ti
atom_frac 0.6666235142661671 0.9166746886174232 0.2083433741378111 Ti
atom_frac 0.8333333395510676 0.7499995234588007 0.0416673143124293 Ti
atom_frac 0.6666683913431422 0.7500284611598388 0.1249998869628655 Ti
atom_frac 0.8333333380780450 0.9166691599300066 0.0273703008237727 O
atom_frac 0.6666101002015524 0.9166535064784220 0.2773836714866872 O
atom_frac 0.8333333259528045 0.7499881891830910 0.3058140593535569 O
atom_frac 0.6666690880400890 0.7500057691396739 0.0559629280696602 O
atom_frac 0.6666618382449635 0.7500139790767116 0.1940385124914814 O
atom_frac 0.8333333387127220 0.7500028951174484 0.1107068443484790 O
atom_frac 0.6666612837090611 0.9166754043356660 0.1393011473994008 O
atom_frac 0.8333333264445263 0.9166857378851190 0.2226094396367253 O
atom_frac 0.8333333025578133 0.9166221619674695 0.6252521667470121 Ti
atom_frac 0.6670345136121367 0.9170346254906556 0.5416668977908444 Ti
atom_frac 0.8333333486947838 0.7499465672999929 0.3748723539416564 Ti
atom_frac 0.6665650121478678 0.7514607425123015 0.4580872886951711 Ti
atom_frac 0.8333333872232668 0.9166908294043216 0.3606215080784163 O
atom_frac 0.6671888039309360 0.9165102794625248 0.6109116652273254 O
atom_frac 0.8333333071981583 0.7498342061630900 0.6392729012810665 O
atom_frac 0.6665502696069738 0.7501409078576976 0.3890467648135941 O
atom_frac 0.6686071598052193 0.7510057658713462 0.5268872966043866 O
atom_frac 0.8333333424267336 0.7507040968871909 0.4437302456354875 O
atom_frac 0.6665106906620614 0.9171888986866513 0.4724214483749499 O
atom_frac 0.8333333030422480 0.9177539801938549 0.5561977404581403 O
atom_frac 0.8333333432765463 0.9166677096262147 0.9583314276670614 Ti
atom_frac 0.6666746749567516 0.9166236463033721 0.8749903180551243 Ti
atom_frac 0.8333333325737597 0.7497333824066922 0.7083767774010569 Ti
atom_frac 0.6665713757537967 0.7499760094164570 0.7916404448031249 Ti
atom_frac 0.8333333172495193 0.9164487459704931 0.6942026255369629 O
atom_frac 0.6666754005400680 0.9166612705995181 0.9440319077462481 O
atom_frac 0.8333333488994084 0.7500039990245989 0.9726299128226197 O
atom_frac 0.6666090713484945 0.7494447794824440 0.7226157587903823 O
atom_frac 0.6666469831151857 0.7499914480993308 0.8606961993585069 O
atom_frac 0.8333333358608084 0.7499695871563796 0.7773517343019617 O
atom_frac 0.6666535423248969 0.9166101860893586 0.8059493849275752 O
atom_frac 0.8333333289365104 0.9166576968259916 0.8892895977956009 O
